EA0  8.414  5.990 11.095 90.000 125.293 
   1.00000000000000     
     8.4144000000000005    0.0000000000000000    0.0000000000000000
     0.0000000000000000    5.9903000000000004    0.0000000000000000
    -6.4104000000000001    0.0000000000000000    9.0560700000000001
   C    H 
    28    20
Direct
  0.0859858251899510  0.0258310067939505  0.3691353774400881
  0.1169836733355183  0.1562132361410846  0.2826806105858140
  0.0587407143217931  0.0821165471382201  0.1403349109117613
  0.0868173206073806  0.2122524181063525  0.0491179381190747
  0.9693244304856563  0.8645202266698320  0.0897101048648850
  0.9400832199723936  0.7343840038323677  0.1829495929483969
  0.9955687975522096  0.8128334922022447  0.3183705921529310
  0.0306755686891762  0.1354797716920260  0.9102898937140438
  0.9131826788125537  0.7877475796402109  0.9508820610845916
  0.9412592849632588  0.9178834507294482  0.8596650880135073
  0.0599167800946034  0.2656159944281384  0.8170504067285194
  0.8830163262886188  0.8437867615815691  0.7173193885485745
  0.0044312023464883  0.1871665051199685  0.6816294070672200
  0.9140141748154633  0.9741689905162332  0.6308646221200505
  0.4140141156469213  0.5258311215206533  0.6308645949902285
  0.5859858838136631  0.4741688796247843  0.3691354053386675
  0.3830163402343345  0.6562133493263573  0.7173194044250408
  0.6169836600909235  0.3437866535768777  0.2826805964105716
  0.4412593076496094  0.5821166409753431  0.8596651282394205
  0.5587406933868948  0.4178833626901977  0.1403348724695022
  0.4131827416197709  0.7122524519389728  0.9508821271746442
  0.5868172591850822  0.2877475513733643  0.0491178740367744
  0.5306755470007332  0.3645202866449821  0.9102898748195400
  0.4693244544537762  0.6354797165889750  0.0897101263593498
  0.5599166801136803  0.2343840484435020  0.8170503468782755
  0.4400833199682381  0.7656159536562157  0.1829496537074533
  0.5044310796145055  0.3128335917236242  0.6816293387544192
  0.4955689200685498  0.6871664095635452  0.3183706622279487
  0.1313460972459453  0.0858198089535520  0.4774195521558227
  0.1856897272367206  0.3196155937536673  0.3208596394792878
  0.1552089830526953  0.3760764235182705  0.0874061839048039
  0.8723296519897090  0.5708292543156972  0.1444141564255048
  0.9709454014936654  0.7108206731027877  0.3876251683701994
  0.8447910158052068  0.6239235748504584  0.9125938148630723
  0.1276703475648375  0.4291707432594478  0.8555858426611636
  0.8143102723946711  0.6803844041007068  0.6791403596583905
  0.0290545990210376  0.2891793241197576  0.6123748309503796
  0.8686539034906673  0.9141801883318763  0.5225804473287567
  0.3686538156749748  0.5858199609399577  0.5225804260169653
  0.6313461835771719  0.4141800400299189  0.4774195743448431
  0.3143102865881318  0.8196157144384770  0.6791404156175247
  0.6856897144939254  0.1803842875537569  0.3208595850205782
  0.3447910669970256  0.8760764670593204  0.9125939041643889
  0.6552089336170042  0.1239235359974913  0.0874060967433223
  0.6276702640225267  0.0708292959239074  0.8555857920445220
  0.3723297363928850  0.9291707067299200  0.1444142094527763
  0.5290544708537155  0.2108207504065831  0.6123747620293187
  0.4709455281657640  0.7891792503753763  0.3876252386370638
 
  0.00000000E+00  0.00000000E+00  0.00000000E+00
  0.00000000E+00  0.00000000E+00  0.00000000E+00
  0.00000000E+00  0.00000000E+00  0.00000000E+00
  0.00000000E+00  0.00000000E+00  0.00000000E+00
  0.00000000E+00  0.00000000E+00  0.00000000E+00
  0.00000000E+00  0.00000000E+00  0.00000000E+00
  0.00000000E+00  0.00000000E+00  0.00000000E+00
  0.00000000E+00  0.00000000E+00  0.00000000E+00
  0.00000000E+00  0.00000000E+00  0.00000000E+00
  0.00000000E+00  0.00000000E+00  0.00000000E+00
  0.00000000E+00  0.00000000E+00  0.00000000E+00
  0.00000000E+00  0.00000000E+00  0.00000000E+00
  0.00000000E+00  0.00000000E+00  0.00000000E+00
  0.00000000E+00  0.00000000E+00  0.00000000E+00
  0.00000000E+00  0.00000000E+00  0.00000000E+00
  0.00000000E+00  0.00000000E+00  0.00000000E+00
  0.00000000E+00  0.00000000E+00  0.00000000E+00
  0.00000000E+00  0.00000000E+00  0.00000000E+00
  0.00000000E+00  0.00000000E+00  0.00000000E+00
  0.00000000E+00  0.00000000E+00  0.00000000E+00
  0.00000000E+00  0.00000000E+00  0.00000000E+00
  0.00000000E+00  0.00000000E+00  0.00000000E+00
  0.00000000E+00  0.00000000E+00  0.00000000E+00
  0.00000000E+00  0.00000000E+00  0.00000000E+00
  0.00000000E+00  0.00000000E+00  0.00000000E+00
  0.00000000E+00  0.00000000E+00  0.00000000E+00
  0.00000000E+00  0.00000000E+00  0.00000000E+00
  0.00000000E+00  0.00000000E+00  0.00000000E+00
  0.00000000E+00  0.00000000E+00  0.00000000E+00
  0.00000000E+00  0.00000000E+00  0.00000000E+00
  0.00000000E+00  0.00000000E+00  0.00000000E+00
  0.00000000E+00  0.00000000E+00  0.00000000E+00
  0.00000000E+00  0.00000000E+00  0.00000000E+00
  0.00000000E+00  0.00000000E+00  0.00000000E+00
  0.00000000E+00  0.00000000E+00  0.00000000E+00
  0.00000000E+00  0.00000000E+00  0.00000000E+00
  0.00000000E+00  0.00000000E+00  0.00000000E+00
  0.00000000E+00  0.00000000E+00  0.00000000E+00
  0.00000000E+00  0.00000000E+00  0.00000000E+00
  0.00000000E+00  0.00000000E+00  0.00000000E+00
  0.00000000E+00  0.00000000E+00  0.00000000E+00
  0.00000000E+00  0.00000000E+00  0.00000000E+00
  0.00000000E+00  0.00000000E+00  0.00000000E+00
  0.00000000E+00  0.00000000E+00  0.00000000E+00
  0.00000000E+00  0.00000000E+00  0.00000000E+00
  0.00000000E+00  0.00000000E+00  0.00000000E+00
  0.00000000E+00  0.00000000E+00  0.00000000E+00
  0.00000000E+00  0.00000000E+00  0.00000000E+00
