0  9.325  5.850  3.733 90.000 90.000 90.
   1.00000000000000     
     9.3249999999999993    0.0000000000000000    0.0000000000000000
     0.0000000000000000    5.8499999999999996    0.0000000000000000
     0.0000000000000000    0.0000000000000000    3.7330000000000001
   N    C    H 
     4     8     8
Direct
  0.1506681291065348  0.9999962033300136  0.9999932233974320
  0.8493301775436208  0.0000029020495305  0.0000051580889320
  0.6506726266410681  0.5000149467661430  0.4999839570364202
  0.3493302493428985  0.4999866137363469  0.5000133722827300
  0.0748906214167491  0.1783548111716229  0.1239072320788281
  0.0748865429866470  0.8216423637255232  0.8760824368186064
  0.9251112400384045  0.1783513111868373  0.1239152510697323
  0.9251073945600652  0.8216490358817410  0.8760969732095276
  0.5748911169650199  0.3216497601137647  0.6239036677781513
  0.4251175917898919  0.3216449294950934  0.6239200976726877
  0.4251108666117531  0.6783511145616359  0.3760937268900904
  0.5748855576181100  0.6783573892968491  0.3760770250220702
  0.1358194467226710  0.3236020932253254  0.2279275529957019
  0.1358122153222965  0.6763948822347601  0.7720531380442281
  0.8641842952935050  0.3236047657444843  0.2279518588116503
  0.8641763634058464  0.6763937213726052  0.7720754844275746
  0.6358352878890372  0.1764031079347177  0.7279230715474085
  0.3641986396029537  0.1763947329678359  0.7279623697403963
  0.3641670937497423  0.8235991533817710  0.2720764972672214
  0.6358045433931920  0.8236061618233705  0.2720379058205964
 
  0.00000000E+00  0.00000000E+00  0.00000000E+00
  0.00000000E+00  0.00000000E+00  0.00000000E+00
  0.00000000E+00  0.00000000E+00  0.00000000E+00
  0.00000000E+00  0.00000000E+00  0.00000000E+00
  0.00000000E+00  0.00000000E+00  0.00000000E+00
  0.00000000E+00  0.00000000E+00  0.00000000E+00
  0.00000000E+00  0.00000000E+00  0.00000000E+00
  0.00000000E+00  0.00000000E+00  0.00000000E+00
  0.00000000E+00  0.00000000E+00  0.00000000E+00
  0.00000000E+00  0.00000000E+00  0.00000000E+00
  0.00000000E+00  0.00000000E+00  0.00000000E+00
  0.00000000E+00  0.00000000E+00  0.00000000E+00
  0.00000000E+00  0.00000000E+00  0.00000000E+00
  0.00000000E+00  0.00000000E+00  0.00000000E+00
  0.00000000E+00  0.00000000E+00  0.00000000E+00
  0.00000000E+00  0.00000000E+00  0.00000000E+00
  0.00000000E+00  0.00000000E+00  0.00000000E+00
  0.00000000E+00  0.00000000E+00  0.00000000E+00
  0.00000000E+00  0.00000000E+00  0.00000000E+00
  0.00000000E+00  0.00000000E+00  0.00000000E+00
