EA0  5.330  6.015  5.436 90.000 115.830 
   1.00000000000000     
     5.3300000000000001    0.0000000000000000    0.0000000000000000
     0.0000000000000000    6.0149999999999997    0.0000000000000000
    -2.3684799999999999    0.0000000000000000    4.8928900000000004
   C    H    O 
     4     4     8
Direct
  0.1436917593113662  0.0030489888529246  0.9983187070777859
  0.8563082407489588  0.9969510112777655  0.0016812929310959
  0.8563082376279851  0.5030489934579450  0.5016814139729107
  0.1436917622678706  0.4969510064887857  0.4983185861333794
  0.5192221459352240  0.8985420981478143  0.1919013235522513
  0.4807778538637066  0.1014579018497770  0.8080986762877274
  0.4807778295517195  0.3985420669156028  0.3080987672442248
  0.5192221703754072  0.6014579330366487  0.6919012325273002
  0.1807725032520437  0.1054561807204095  0.8211407715379906
  0.3329934392102203  0.8920563308397149  0.2023553632349575
  0.8192274969933564  0.8945438191309592  0.1788592284730868
  0.6670065606554303  0.1079436693328901  0.7976446369227190
  0.8192275646023646  0.6054561756494792  0.6788593032868562
  0.1807724356162552  0.3945438239216870  0.3211406970351405
  0.6670066100501586  0.3920562902932900  0.2976447907568698
  0.3329933899379114  0.6079437100842924  0.7023552090256899
 
  0.00000000E+00  0.00000000E+00  0.00000000E+00
  0.00000000E+00  0.00000000E+00  0.00000000E+00
  0.00000000E+00  0.00000000E+00  0.00000000E+00
  0.00000000E+00  0.00000000E+00  0.00000000E+00
  0.00000000E+00  0.00000000E+00  0.00000000E+00
  0.00000000E+00  0.00000000E+00  0.00000000E+00
  0.00000000E+00  0.00000000E+00  0.00000000E+00
  0.00000000E+00  0.00000000E+00  0.00000000E+00
  0.00000000E+00  0.00000000E+00  0.00000000E+00
  0.00000000E+00  0.00000000E+00  0.00000000E+00
  0.00000000E+00  0.00000000E+00  0.00000000E+00
  0.00000000E+00  0.00000000E+00  0.00000000E+00
  0.00000000E+00  0.00000000E+00  0.00000000E+00
  0.00000000E+00  0.00000000E+00  0.00000000E+00
  0.00000000E+00  0.00000000E+00  0.00000000E+00
  0.00000000E+00  0.00000000E+00  0.00000000E+00
