&CONTROL
    calculation='scf'
!    restart_mode='restart',
!! "exit file" (i.e.: create a file "prefix".EXIT, in directory "outdir"; see variables prefix, outdir)
!    prefix="c"
    pseudo_dir="../../../../"
    tprnfor=.true.
!    outdir = '.'
!    max_seconds=60000
    wf_collect = .true.
    verbosity = 'high'
    disk_io='low'
!    disk_io='none'  ! No restart
 /
 &system
    ibrav = 0,
    nat= 16, ntyp= 4,
    ecutwfc = 600,
    nosym=.t.
!    nspin=1,nbnd=580
!    occupations='smearing'
!    degauss=0.001
!    smearing='fd'
    input_dft='lda'
!    input_dft='kzk'
!    input_dft='hf'
!x_gamma_extrapolation = .false.
 /
 &electrons
    conv_thr = 1.0e-7
    mixing_beta = 0.7
!! for highly homogeneous systems
!    mixing_mode = 'TF'
!! for highly inhomogeneous systems
!    mixing_mode = 'local-TF'
!    diago_david_ndim=2
 /
ATOMIC_SPECIES
H 1.0  H_eCEPP_LDA.oldpw
C 12.0 C_eCEPP_LDA.oldpw
N 14.0 N_eCEPP_LDA.oldpw
O 16.0 O_eCEPP_LDA.oldpw

K_POINTS automatic
2 2 2 0 0 0

CELL_PARAMETERS { angstrom }
5.565 0.0 0.0
0.0 5.565 0.0
0.0 0.0 4.684

ATOMIC_POSITIONS { angstrom }
H        1.44737823       4.22988838       1.32525231
H        4.11762046       1.33511135       1.32525297
H        4.22987843       4.11761117       3.35874637
H        1.33512142       1.44738778       3.35874604
H        0.81111818       3.59361924       4.49317533
H        4.75388070       1.97138078       4.49317439
H        3.59361902       4.75387979       0.19082530
H        1.97138012       0.81111991       0.19082487
C        0.00000126       2.78250216       1.52725892
C        2.78250006       5.56499847       3.15674221
N        0.81701070       3.59949789       0.82848262
N        4.74799079       1.96550593       0.82848392
N        3.59951046       4.74800198       3.85551759
N        1.96549033       0.81699503       3.85551639
O        5.56499963       2.78250092       2.80034018
O        2.78250003       5.56499905       1.88366096
