C1 H4 N2 O1                             
   1.00000000000000     
     5.5650000000000004    0.0000000000000000    0.0000000000000000
     0.0000000000000000    5.5650000000000004    0.0000000000000000
     0.0000000000000000    0.0000000000000000    4.6840000000000002
   C    O    N    H 
     2     2     4     8
Direct
  0.0000002272162973  0.5000003883470967  0.3260586939637093
  0.5000000111717355  0.9999997249876813  0.6739415469890417
  0.9999999343034816  0.5000001656370259  0.5978523016141324
  0.5000000048868927  0.9999998291480878  0.4021479424109700
  0.1468123449332026  0.6468100431307846  0.1768750262033478
  0.8531879230504131  0.3531906441233872  0.1768753030863834
  0.6468123019038856  0.8531899334320272  0.8231250190707442
  0.3531878399169202  0.1468095284559041  0.8231247637860477
  0.2600859354923060  0.7600877597290818  0.2829317482328477
  0.7399138299928580  0.2399121921987657  0.2829318885990588
  0.7600859715726216  0.7399121604779850  0.7170679701881042
  0.2399140023703552  0.2600876507841434  0.7170678995501518
  0.1457534907504012  0.6457536817334670  0.9592603188381190
  0.8542463065965151  0.3542463214054337  0.9592601181124039
  0.6457536421471914  0.8542461439368907  0.0407398166676671
  0.3542462036949132  0.1457538024722140  0.0407397246872705
 
  0.00000000E+00  0.00000000E+00  0.00000000E+00
  0.00000000E+00  0.00000000E+00  0.00000000E+00
  0.00000000E+00  0.00000000E+00  0.00000000E+00
  0.00000000E+00  0.00000000E+00  0.00000000E+00
  0.00000000E+00  0.00000000E+00  0.00000000E+00
  0.00000000E+00  0.00000000E+00  0.00000000E+00
  0.00000000E+00  0.00000000E+00  0.00000000E+00
  0.00000000E+00  0.00000000E+00  0.00000000E+00
  0.00000000E+00  0.00000000E+00  0.00000000E+00
  0.00000000E+00  0.00000000E+00  0.00000000E+00
  0.00000000E+00  0.00000000E+00  0.00000000E+00
  0.00000000E+00  0.00000000E+00  0.00000000E+00
  0.00000000E+00  0.00000000E+00  0.00000000E+00
  0.00000000E+00  0.00000000E+00  0.00000000E+00
  0.00000000E+00  0.00000000E+00  0.00000000E+00
  0.00000000E+00  0.00000000E+00  0.00000000E+00
