C4 H4 N2 O2                             
   1.00000000000000     
    11.9380000000000006    0.0000000000000000    0.0000000000000000
     0.0000000000000000   12.3759999999999994    0.0000000000000000
    -1.8771000000000000    0.0000000000000000    3.1364000000000001
   C    H    N    O 
    16    16     8     8
Direct
  0.1495810656282416  0.2096231448888364  0.0018311535868601
  0.8504176603125025  0.7903764145235842  0.9981635429012669
  0.3504080831302032  0.7096134965230027  0.9981836138490321
  0.6495926716478154  0.2903860439389080  0.0018164509274074
  0.1802155110200921  0.0115366571845891  0.0357218909861685
  0.8197854866382710  0.9884630946074832  0.9642810737101648
  0.3197772871392017  0.5115305420007680  0.9642335100283996
  0.6802224187969379  0.4884698077163109  0.0357692095042891
  0.3053882763792933  0.0282208779332666  0.0806780577078066
  0.6946122526834384  0.9717794084941708  0.9193227825317154
  0.1946050874558388  0.5282067667312919  0.9192860996768012
  0.8053951992193393  0.4717935347679215  0.0807180580416966
  0.3459751797753681  0.1311667093559233  0.0815939122198012
  0.6540241047138143  0.8688339167071121  0.9184019655017646
  0.1540094623406778  0.6311484856846554  0.9183798840147140
  0.8459903214011366  0.3688521156351996  0.0816188997100842
  0.4389269230915155  0.1503610131750871  0.1086193159281099
  0.5610718781143154  0.8496402339071905  0.8913744864238713
  0.0610586506397942  0.6503384495968108  0.8913637282937923
  0.9389408899871644  0.3496624596162486  0.1086337623735855
  0.3026449325045837  0.2961124143661887  0.0292819782130831
  0.6973530304653778  0.7038883311255950  0.9707120605152971
  0.1973362657404711  0.7960940011285476  0.9706955374997231
  0.8026646145748028  0.2039062163490767  0.0293049732968336
  0.0195334481480244  0.0954220566664074  0.9753854474211716
  0.9804674473937656  0.9045766356011613  0.0246179852291692
  0.4804633582839157  0.5954211920746165  0.0246211381839285
  0.5195370400551833  0.4045781352308422  0.9753815322190589
  0.3640147541577882  0.9583415900735456  0.1052532026765970
  0.6359865798016652  0.0416590450136431  0.8947485676568984
  0.1359785774375726  0.4583237978429976  0.8947011382113567
  0.8640212176576600  0.5416766210157208  0.1053013454668582
  0.2708437995696672  0.2186780439608688  0.0421732725077792
  0.7291546657787368  0.7813221548460612  0.9578199528813075
  0.2291385137760855  0.7186612119890118  0.9578023836908776
  0.7708617457739536  0.2813390190644067  0.0421953609594934
  0.1102202499365093  0.1043817869685499  0.0021258080459143
  0.8897800820749371  0.8956175616702958  0.9978764273412034
  0.3897744701755924  0.6043758597529577  0.9978718137829313
  0.6102256765624787  0.3956234698092942  0.0021298912655540
  0.0815702912581035  0.2881936480826721  0.9688759696693605
  0.9184268052069922  0.7118051734615025  0.0311118421245698
  0.4184190413017233  0.7881895959477037  0.0311961493308112
  0.5815818196659895  0.2118098667015942  0.9688045221838376
  0.1304439608853696  0.9209391462627083  0.0241513983429759
  0.8695580177813229  0.0790605123239962  0.9758565921208264
  0.3695439525548030  0.4209321962243932  0.9757365777558177
  0.6304572233619474  0.5790675564572566  0.0242757074894677
 
  0.00000000E+00  0.00000000E+00  0.00000000E+00
  0.00000000E+00  0.00000000E+00  0.00000000E+00
  0.00000000E+00  0.00000000E+00  0.00000000E+00
  0.00000000E+00  0.00000000E+00  0.00000000E+00
  0.00000000E+00  0.00000000E+00  0.00000000E+00
  0.00000000E+00  0.00000000E+00  0.00000000E+00
  0.00000000E+00  0.00000000E+00  0.00000000E+00
  0.00000000E+00  0.00000000E+00  0.00000000E+00
  0.00000000E+00  0.00000000E+00  0.00000000E+00
  0.00000000E+00  0.00000000E+00  0.00000000E+00
  0.00000000E+00  0.00000000E+00  0.00000000E+00
  0.00000000E+00  0.00000000E+00  0.00000000E+00
  0.00000000E+00  0.00000000E+00  0.00000000E+00
  0.00000000E+00  0.00000000E+00  0.00000000E+00
  0.00000000E+00  0.00000000E+00  0.00000000E+00
  0.00000000E+00  0.00000000E+00  0.00000000E+00
  0.00000000E+00  0.00000000E+00  0.00000000E+00
  0.00000000E+00  0.00000000E+00  0.00000000E+00
  0.00000000E+00  0.00000000E+00  0.00000000E+00
  0.00000000E+00  0.00000000E+00  0.00000000E+00
  0.00000000E+00  0.00000000E+00  0.00000000E+00
  0.00000000E+00  0.00000000E+00  0.00000000E+00
  0.00000000E+00  0.00000000E+00  0.00000000E+00
  0.00000000E+00  0.00000000E+00  0.00000000E+00
  0.00000000E+00  0.00000000E+00  0.00000000E+00
  0.00000000E+00  0.00000000E+00  0.00000000E+00
  0.00000000E+00  0.00000000E+00  0.00000000E+00
  0.00000000E+00  0.00000000E+00  0.00000000E+00
  0.00000000E+00  0.00000000E+00  0.00000000E+00
  0.00000000E+00  0.00000000E+00  0.00000000E+00
  0.00000000E+00  0.00000000E+00  0.00000000E+00
  0.00000000E+00  0.00000000E+00  0.00000000E+00
  0.00000000E+00  0.00000000E+00  0.00000000E+00
  0.00000000E+00  0.00000000E+00  0.00000000E+00
  0.00000000E+00  0.00000000E+00  0.00000000E+00
  0.00000000E+00  0.00000000E+00  0.00000000E+00
  0.00000000E+00  0.00000000E+00  0.00000000E+00
  0.00000000E+00  0.00000000E+00  0.00000000E+00
  0.00000000E+00  0.00000000E+00  0.00000000E+00
  0.00000000E+00  0.00000000E+00  0.00000000E+00
  0.00000000E+00  0.00000000E+00  0.00000000E+00
  0.00000000E+00  0.00000000E+00  0.00000000E+00
  0.00000000E+00  0.00000000E+00  0.00000000E+00
  0.00000000E+00  0.00000000E+00  0.00000000E+00
  0.00000000E+00  0.00000000E+00  0.00000000E+00
  0.00000000E+00  0.00000000E+00  0.00000000E+00
  0.00000000E+00  0.00000000E+00  0.00000000E+00
  0.00000000E+00  0.00000000E+00  0.00000000E+00
