C1 H3 N1 O1                             
   1.00000000000000     
     3.6040000000000001    0.0000000000000000    0.0000000000000000
     0.0000000000000000    9.0410000000000004    0.0000000000000000
    -1.2745599999999999    0.0000000000000000    6.8768799999999999
   C    O    N    H 
     4     4     4    12
Direct
  0.3320330560068214  0.0550831755559500  0.2573188393647499
  0.6679708451292328  0.9449269837440255  0.7426743861254792
  0.1679635518491196  0.5550725299283670  0.2426733916619241
  0.8320315957388473  0.4449151691821953  0.7573293720273284
  0.4737662542546630  0.9292202745627733  0.2482946935805614
  0.5262445313033197  0.0707873728080060  0.7516998995691466
  0.0262291404316670  0.4292171043164359  0.2517014888644198
  0.9737666120041411  0.5707745050810971  0.7483067131392076
  0.2944433724017514  0.1560109070448377  0.1170404706466854
  0.7055631006515455  0.8439985303690918  0.8829563338829374
  0.2055453364507116  0.6560044275877672  0.3829530100118888
  0.7944437847573127  0.3439876697984232  0.6170491866504477
  0.1885744238734333  0.2583833215950477  0.1424066592701223
  0.8114253653105692  0.7416241732695639  0.8575958794990228
  0.3114279545452376  0.7583793162568710  0.3575868800930522
  0.6885613162893591  0.2416125941106344  0.6424173495953838
  0.3769054325590773  0.1318014065771607  0.9867482269993104
  0.6230985819863335  0.8682090698890974  0.0132468506532888
  0.1230897631977115  0.6317971838191099  0.5132399503449605
  0.8769011563536395  0.3681967480209636  0.4867595628796124
  0.2307781178615116  0.0904175469564947  0.3902464872502449
  0.7692314000826528  0.9095902338328870  0.6097485884525469
  0.2692323416315290  0.5904056906988302  0.1097476508361197
  0.7307729803298173  0.4095840759943883  0.8902581166015509
 
  0.00000000E+00  0.00000000E+00  0.00000000E+00
  0.00000000E+00  0.00000000E+00  0.00000000E+00
  0.00000000E+00  0.00000000E+00  0.00000000E+00
  0.00000000E+00  0.00000000E+00  0.00000000E+00
  0.00000000E+00  0.00000000E+00  0.00000000E+00
  0.00000000E+00  0.00000000E+00  0.00000000E+00
  0.00000000E+00  0.00000000E+00  0.00000000E+00
  0.00000000E+00  0.00000000E+00  0.00000000E+00
  0.00000000E+00  0.00000000E+00  0.00000000E+00
  0.00000000E+00  0.00000000E+00  0.00000000E+00
  0.00000000E+00  0.00000000E+00  0.00000000E+00
  0.00000000E+00  0.00000000E+00  0.00000000E+00
  0.00000000E+00  0.00000000E+00  0.00000000E+00
  0.00000000E+00  0.00000000E+00  0.00000000E+00
  0.00000000E+00  0.00000000E+00  0.00000000E+00
  0.00000000E+00  0.00000000E+00  0.00000000E+00
  0.00000000E+00  0.00000000E+00  0.00000000E+00
  0.00000000E+00  0.00000000E+00  0.00000000E+00
  0.00000000E+00  0.00000000E+00  0.00000000E+00
  0.00000000E+00  0.00000000E+00  0.00000000E+00
  0.00000000E+00  0.00000000E+00  0.00000000E+00
  0.00000000E+00  0.00000000E+00  0.00000000E+00
  0.00000000E+00  0.00000000E+00  0.00000000E+00
  0.00000000E+00  0.00000000E+00  0.00000000E+00
