C6 H8 O2                                
   1.00000000000000     
     6.6500000000000004    0.0000000000000000    0.0000000000000000
     0.0000000000000000    6.2100000000000000    0.0000000000000000
    -1.1717000000000000    0.0000000000000000    6.7693399999999997
   C    H    O 
    12    16     4
Direct
  0.4305978315658146  0.1733472616826996  0.4472475511613627
  0.5694035813882492  0.6733432027843490  0.5527489528144330
  0.5177135971507064  0.1746281303971007  0.2572428132876864
  0.4822867057432252  0.6746313465189658  0.7427553469344633
  0.3583887102124089  0.2196599286529740  0.0722047090749450
  0.6416092346810259  0.7196643617963940  0.9277947948796040
  0.1735279535656990  0.0750383685827890  0.0602809401013720
  0.8264708486289625  0.5750418384152327  0.9397211640739059
  0.1013622056290181  0.0292248471039426  0.2539515148297530
  0.8986403387576507  0.5292275369871382  0.7460509144980182
  0.2008316522766342  0.1740356556074741  0.4252158750846999
  0.7991711250760617  0.6740344261002262  0.5747834633483836
  0.6434337705949082  0.2916110747728662  0.2713477837665789
  0.3565664013532692  0.7916140894082072  0.7286478638924413
  0.5854629281979209  0.0139207514276996  0.2470186182558153
  0.4145349695541997  0.5139252417502134  0.7529802917637375
  0.3013338495990829  0.3859274074450598  0.0806890292536476
  0.6986596976286251  0.8859336774928432  0.9193132210394700
  0.4227823331665796  0.2037985730664777  0.9360141590260690
  0.5772162172203580  0.7037975168040967  0.0639850818752884
  0.1374751158403947  0.8587321241379156  0.2891164031842990
  0.8625296080082223  0.3587341082042353  0.7108908230777992
  0.9345564176262681  0.0443657177091747  0.2294532579453811
  0.0654453772261001  0.5443708819103031  0.7705501459419517
  0.1523792781621835  0.3422639237005783  0.3917375543494001
  0.8476218569073452  0.8422631246480491  0.6082631992318454
  0.1555533983815221  0.1287714332815749  0.5661146349333521
  0.8444521061734801  0.6287694201200208  0.4338838464800225
  0.5430081308430140  0.1703282185600517  0.6089902038033808
  0.4569930356844642  0.6703138439365602  0.3910041063501952
  0.0878375891874026  0.9959424820334970  0.9042636826777686
  0.9121541409692130  0.4959394319612619  0.0957382010629347
 
  0.00000000E+00  0.00000000E+00  0.00000000E+00
  0.00000000E+00  0.00000000E+00  0.00000000E+00
  0.00000000E+00  0.00000000E+00  0.00000000E+00
  0.00000000E+00  0.00000000E+00  0.00000000E+00
  0.00000000E+00  0.00000000E+00  0.00000000E+00
  0.00000000E+00  0.00000000E+00  0.00000000E+00
  0.00000000E+00  0.00000000E+00  0.00000000E+00
  0.00000000E+00  0.00000000E+00  0.00000000E+00
  0.00000000E+00  0.00000000E+00  0.00000000E+00
  0.00000000E+00  0.00000000E+00  0.00000000E+00
  0.00000000E+00  0.00000000E+00  0.00000000E+00
  0.00000000E+00  0.00000000E+00  0.00000000E+00
  0.00000000E+00  0.00000000E+00  0.00000000E+00
  0.00000000E+00  0.00000000E+00  0.00000000E+00
  0.00000000E+00  0.00000000E+00  0.00000000E+00
  0.00000000E+00  0.00000000E+00  0.00000000E+00
  0.00000000E+00  0.00000000E+00  0.00000000E+00
  0.00000000E+00  0.00000000E+00  0.00000000E+00
  0.00000000E+00  0.00000000E+00  0.00000000E+00
  0.00000000E+00  0.00000000E+00  0.00000000E+00
  0.00000000E+00  0.00000000E+00  0.00000000E+00
  0.00000000E+00  0.00000000E+00  0.00000000E+00
  0.00000000E+00  0.00000000E+00  0.00000000E+00
  0.00000000E+00  0.00000000E+00  0.00000000E+00
  0.00000000E+00  0.00000000E+00  0.00000000E+00
  0.00000000E+00  0.00000000E+00  0.00000000E+00
  0.00000000E+00  0.00000000E+00  0.00000000E+00
  0.00000000E+00  0.00000000E+00  0.00000000E+00
  0.00000000E+00  0.00000000E+00  0.00000000E+00
  0.00000000E+00  0.00000000E+00  0.00000000E+00
  0.00000000E+00  0.00000000E+00  0.00000000E+00
  0.00000000E+00  0.00000000E+00  0.00000000E+00
