 H  C  N 
 1.0000000000000000
    -3.4763250999999999    3.4763250999999999    3.4763250999999999
     3.4763250999999999   -3.4763250999999999    3.4763250999999999
     3.4763250999999999    3.4763250999999999   -3.4763250999999999
 H   C   N  
  12   6   4
Cartesian
  2.3187000000000002  0.6381000000000000 -0.6381000000000000
 -0.6381000000000000  2.3187000000000002  0.6381000000000000
  4.6338999999999997  0.6381000000000000  0.6381000000000000
 -0.6381000000000000  0.6381000000000000  2.3187000000000002
  0.6381000000000000  2.3187000000000002 -0.6381000000000000
  0.6381000000000000 -0.6381000000000000  2.3187000000000002
  1.1576000000000000  2.8382000000000001  2.8382000000000001
  2.8382000000000001  1.1576000000000000  2.8382000000000001
  0.6381000000000000  4.6338999999999997  0.6381000000000000
  2.3187000000000002 -0.6381000000000000  0.6381000000000000
  0.6381000000000000  0.6381000000000000  4.6338999999999997
  2.8382000000000001  2.8382000000000001  1.1576000000000000
  1.6898000000000000  0.0000000000000000  0.0000000000000000
  0.0000000000000000  1.6898000000000000  0.0000000000000000
  5.2629000000000001  0.0000000000000000  0.0000000000000000
  0.0000000000000000  0.0000000000000000  1.6898000000000000
  0.0000000000000000  5.2629000000000001  0.0000000000000000
  0.0000000000000000  0.0000000000000000  5.2629000000000001
  0.8675000000000000  0.8675000000000000  0.8675000000000000
  2.6088000000000000 -2.6088000000000000  2.6088000000000000
  2.6088000000000000  2.6088000000000000 -2.6088000000000000
 -2.6088000000000000  2.6088000000000000  2.6088000000000000
