EA0  6.548  7.844  6.086 90.000 90.000 9
   1.00000000000000     
     6.5480000000000000    0.0000000000000000    0.0000000000000000
     0.0000000000000000    7.8440000000000003    0.0000000000000000
     0.0000000000000000    0.0000000000000000    6.0860000000000003
   C    H    O 
     8     8    16
Direct
  0.0573966406162825  0.0551156438566949  0.9147453963127248
  0.9426033593301710  0.9448843561304443  0.0852546036349651
  0.4426033693514100  0.0551156630286798  0.4147453922798050
  0.5573966533509420  0.4448843173747079  0.9147454435537341
  0.9426033821858297  0.4448843299339700  0.4147454068859133
  0.5573966306662186  0.9448843369821276  0.5852546077390457
  0.4426033466673900  0.5551156826381032  0.0852545564627292
  0.0573966178326586  0.5551156700549384  0.5852545930948168
  0.0962347303477316  0.2955670337467993  0.8437837475998506
  0.9037652696155973  0.7044329662501099  0.1562162523791386
  0.4037652376209522  0.2955670453643009  0.3437838446035428
  0.5962348028913595  0.2044329539241829  0.8437838259937323
  0.9037652415848640  0.2044329407534775  0.3437838579019115
  0.5962347624019344  0.7044329546434795  0.6562161554261436
  0.4037651971112197  0.7955670460712412  0.1562161740561194
  0.0962347584196266  0.7955670592274799  0.6562161421042561
  0.1571246061674358  0.9928575399107942  0.7645949008646227
  0.0305445883334770  0.2180356344923169  0.9550220636990971
  0.8428753937958646  0.0071424600802743  0.2354050990991894
  0.9694554115991920  0.7819643654984745  0.0449779362524083
  0.3428755081180483  0.9928576305769070  0.2645948510211014
  0.6571246165205835  0.5071423999681528  0.7645949392907809
  0.8428754923393882  0.5071424297051905  0.2645948835527747
  0.6571244918945709  0.0071423694446722  0.7354051490016076
  0.3428753834878862  0.4928576000425196  0.2354050607191454
  0.1571245076907388  0.4928575702842011  0.7354051164197486
  0.4694553633991205  0.2180356841225333  0.4550222222635583
  0.5305445860790243  0.2819643127507234  0.9550221714792499
  0.9694554033212341  0.2819643337355373  0.4550222126708832
  0.5305446366399948  0.7819643158887999  0.5449777777559603
  0.4694554139360534  0.7180356872652212  0.0449778285538045
  0.0305445966832067  0.7180356662529377  0.5449777873276318
 
  0.00000000E+00  0.00000000E+00  0.00000000E+00
  0.00000000E+00  0.00000000E+00  0.00000000E+00
  0.00000000E+00  0.00000000E+00  0.00000000E+00
  0.00000000E+00  0.00000000E+00  0.00000000E+00
  0.00000000E+00  0.00000000E+00  0.00000000E+00
  0.00000000E+00  0.00000000E+00  0.00000000E+00
  0.00000000E+00  0.00000000E+00  0.00000000E+00
  0.00000000E+00  0.00000000E+00  0.00000000E+00
  0.00000000E+00  0.00000000E+00  0.00000000E+00
  0.00000000E+00  0.00000000E+00  0.00000000E+00
  0.00000000E+00  0.00000000E+00  0.00000000E+00
  0.00000000E+00  0.00000000E+00  0.00000000E+00
  0.00000000E+00  0.00000000E+00  0.00000000E+00
  0.00000000E+00  0.00000000E+00  0.00000000E+00
  0.00000000E+00  0.00000000E+00  0.00000000E+00
  0.00000000E+00  0.00000000E+00  0.00000000E+00
  0.00000000E+00  0.00000000E+00  0.00000000E+00
  0.00000000E+00  0.00000000E+00  0.00000000E+00
  0.00000000E+00  0.00000000E+00  0.00000000E+00
  0.00000000E+00  0.00000000E+00  0.00000000E+00
  0.00000000E+00  0.00000000E+00  0.00000000E+00
  0.00000000E+00  0.00000000E+00  0.00000000E+00
  0.00000000E+00  0.00000000E+00  0.00000000E+00
  0.00000000E+00  0.00000000E+00  0.00000000E+00
  0.00000000E+00  0.00000000E+00  0.00000000E+00
  0.00000000E+00  0.00000000E+00  0.00000000E+00
  0.00000000E+00  0.00000000E+00  0.00000000E+00
  0.00000000E+00  0.00000000E+00  0.00000000E+00
  0.00000000E+00  0.00000000E+00  0.00000000E+00
  0.00000000E+00  0.00000000E+00  0.00000000E+00
  0.00000000E+00  0.00000000E+00  0.00000000E+00
  0.00000000E+00  0.00000000E+00  0.00000000E+00
