C4 H5 N3 O1                             
   1.00000000000000     
    13.0440000000000005    0.0000000000000000    0.0000000000000000
     0.0000000000000000    9.4960000000000004    0.0000000000000000
     0.0000000000000000    0.0000000000000000    3.8140000000000001
   C    H    N    O 
    16    20    12     4
Direct
  0.9836759715971133  0.1541460253517959  0.3245782243447469
  0.5163234341806918  0.8458525640941381  0.8245782038608855
  0.0163226493490174  0.6541472538860951  0.1754236482036201
  0.4836780905787036  0.3458524786293264  0.6754232621731250
  0.1307477748203685  0.2639924622443717  0.5504422930951152
  0.3692505494429065  0.7360093856159924  0.0504390602389105
  0.8692513110921223  0.7639888326480863  0.9495579935165963
  0.6307505074538775  0.2360096091584213  0.4495593623822131
  0.1708395273252663  0.1328527794983719  0.6730859729944410
  0.3291601493510022  0.8671477815738498  0.1730869565172183
  0.8291608625806725  0.6328513274583306  0.8269122545538544
  0.6708401550378018  0.3671480806836162  0.3269141933830642
  0.1132385221004173  0.0159253160894506  0.6118144087113084
  0.3867606862449147  0.9840751534529734  0.1118151756810251
  0.8867602115514629  0.5159244207268158  0.8881820199375010
  0.6132395878184586  0.4840754073209924  0.3881867086159804
  0.9893415057044318  0.9321318601503197  0.3458387445261218
  0.5106583777031850  0.0678668370659181  0.8458397663899455
  0.0106576327049486  0.4321334248544810  0.1541600166823263
  0.4893422255260479  0.5678668666168981  0.6541615221086721
  0.1544932149773874  0.4777575785399146  0.5179483610220400
  0.3455053556798332  0.5222448114826556  0.0179462780162719
  0.8455052426154825  0.9777533383421232  0.9820511120095169
  0.6544962169158738  0.0222465921731678  0.4820525042803342
  0.2583933986169280  0.3768907044383530  0.6855583295665687
  0.2416046200287775  0.6231099888860641  0.1855568196296624
  0.7416046500217851  0.8768876331101894  0.8144413184639763
  0.7583975575429384  0.1231123664829615  0.3144425684758209
  0.2436246037876589  0.1286377722991178  0.8097784120774535
  0.2563749056373978  0.8713635549902442  0.3097788351700915
  0.7563757144374003  0.6286360482490140  0.6902181071591947
  0.7436257220754833  0.3713640041662030  0.1902196052147875
  0.1350005278257955  0.9098943047992066  0.6923180850787813
  0.3650002476626303  0.0901063012516850  0.1923171098028620
  0.8650007742678488  0.4098922483413876  0.8076804910618400
  0.6350000938119070  0.5901073138898314  0.3076824748523597
  0.0223371231143394  0.0256811250491074  0.4407279988963900
  0.4776632105858092  0.9743199047940346  0.9407238155459932
  0.9776636588350979  0.5256787375272858  0.0592768742587761
  0.5223364684738689  0.4743200380686183  0.5592771892555146
  0.0395096576286053  0.2724975846106650  0.3860428917981968
  0.4604886205648021  0.7275027226770383  0.8860396181668575
  0.9604889524961057  0.7724962448367573  0.1139597082042134
  0.5395123615977121  0.2275030064130703  0.6139622797050379
  0.1841683333110084  0.3831376123629947  0.6002509186293346
  0.3158286424185353  0.6168639354037608  0.1002460646682745
  0.8158282376234314  0.8831350666379091  0.8997472148710337
  0.6841724709535855  0.1168647728401874  0.3997522525119601
  0.8996299044952083  0.1565531597818732  0.1620157256123829
  0.6003703946606499  0.8434455119452039  0.6620200173483103
  0.1003696117835264  0.6565535441315546  0.3379849849697106
  0.3996298353891468  0.3434445613575967  0.8379822457597672
 
  0.00000000E+00  0.00000000E+00  0.00000000E+00
  0.00000000E+00  0.00000000E+00  0.00000000E+00
  0.00000000E+00  0.00000000E+00  0.00000000E+00
  0.00000000E+00  0.00000000E+00  0.00000000E+00
  0.00000000E+00  0.00000000E+00  0.00000000E+00
  0.00000000E+00  0.00000000E+00  0.00000000E+00
  0.00000000E+00  0.00000000E+00  0.00000000E+00
  0.00000000E+00  0.00000000E+00  0.00000000E+00
  0.00000000E+00  0.00000000E+00  0.00000000E+00
  0.00000000E+00  0.00000000E+00  0.00000000E+00
  0.00000000E+00  0.00000000E+00  0.00000000E+00
  0.00000000E+00  0.00000000E+00  0.00000000E+00
  0.00000000E+00  0.00000000E+00  0.00000000E+00
  0.00000000E+00  0.00000000E+00  0.00000000E+00
  0.00000000E+00  0.00000000E+00  0.00000000E+00
  0.00000000E+00  0.00000000E+00  0.00000000E+00
  0.00000000E+00  0.00000000E+00  0.00000000E+00
  0.00000000E+00  0.00000000E+00  0.00000000E+00
  0.00000000E+00  0.00000000E+00  0.00000000E+00
  0.00000000E+00  0.00000000E+00  0.00000000E+00
  0.00000000E+00  0.00000000E+00  0.00000000E+00
  0.00000000E+00  0.00000000E+00  0.00000000E+00
  0.00000000E+00  0.00000000E+00  0.00000000E+00
  0.00000000E+00  0.00000000E+00  0.00000000E+00
  0.00000000E+00  0.00000000E+00  0.00000000E+00
  0.00000000E+00  0.00000000E+00  0.00000000E+00
  0.00000000E+00  0.00000000E+00  0.00000000E+00
  0.00000000E+00  0.00000000E+00  0.00000000E+00
  0.00000000E+00  0.00000000E+00  0.00000000E+00
  0.00000000E+00  0.00000000E+00  0.00000000E+00
  0.00000000E+00  0.00000000E+00  0.00000000E+00
  0.00000000E+00  0.00000000E+00  0.00000000E+00
  0.00000000E+00  0.00000000E+00  0.00000000E+00
  0.00000000E+00  0.00000000E+00  0.00000000E+00
  0.00000000E+00  0.00000000E+00  0.00000000E+00
  0.00000000E+00  0.00000000E+00  0.00000000E+00
  0.00000000E+00  0.00000000E+00  0.00000000E+00
  0.00000000E+00  0.00000000E+00  0.00000000E+00
  0.00000000E+00  0.00000000E+00  0.00000000E+00
  0.00000000E+00  0.00000000E+00  0.00000000E+00
  0.00000000E+00  0.00000000E+00  0.00000000E+00
  0.00000000E+00  0.00000000E+00  0.00000000E+00
  0.00000000E+00  0.00000000E+00  0.00000000E+00
  0.00000000E+00  0.00000000E+00  0.00000000E+00
  0.00000000E+00  0.00000000E+00  0.00000000E+00
  0.00000000E+00  0.00000000E+00  0.00000000E+00
  0.00000000E+00  0.00000000E+00  0.00000000E+00
  0.00000000E+00  0.00000000E+00  0.00000000E+00
  0.00000000E+00  0.00000000E+00  0.00000000E+00
  0.00000000E+00  0.00000000E+00  0.00000000E+00
  0.00000000E+00  0.00000000E+00  0.00000000E+00
  0.00000000E+00  0.00000000E+00  0.00000000E+00
