C1 H2 N2                                
   1.00000000000000     
     6.8559999999999999    0.0000000000000000    0.0000000000000000
     0.0000000000000000    6.6280000000000001    0.0000000000000000
     0.0000000000000000    0.0000000000000000    9.1470000000000002
   N    C    H 
    16     8    16
Direct
  0.1439306937622333  0.1661433334182885  0.1083169430549846
  0.8560695419936841  0.8338576602276916  0.8916823381174911
  0.3560722634972843  0.8338590848618722  0.6083170196571837
  0.6439285407033568  0.1661421292260518  0.3916827969292373
  0.8560720335673668  0.6661445496160999  0.3916836405705466
  0.1439279915795678  0.3338557553964412  0.6083160763892580
  0.6439285926503114  0.3338557884652740  0.8916825087159896
  0.3560692555666445  0.6661446601915588  0.1083186857590398
  0.1464684658082887  0.9971886631776782  0.3502586700699550
  0.8535309854775408  0.0028126349003092  0.6497407304400502
  0.3535321083554610  0.0028033528199061  0.8502543031775014
  0.6464716480979436  0.9971922974862025  0.1497474846638056
  0.8535345943594069  0.4971871351166941  0.1497474023553039
  0.1464647222259712  0.5028137513353897  0.8502520823280642
  0.6464670246486803  0.5028034908610223  0.6497372169793324
  0.3535364151938226  0.4971906732919296  0.3502638598854263
  0.1445216584451791  0.0743356922456261  0.2347766722215002
  0.8554782308725535  0.9256655867369211  0.7652229225696576
  0.3554784041489940  0.9256620862082624  0.7347789740908164
  0.6445236268897874  0.0743362821614517  0.2652219508778222
  0.8554773185786191  0.5743341608257756  0.2652175824458032
  0.1445222883628703  0.4256664709869425  0.7347819346281174
  0.6445172211358391  0.4256650534932168  0.7652174763980049
  0.3554809683286824  0.5743339434211516  0.2347843704708261
  0.2102620935909067  0.1011673162481260  0.0186493572031602
  0.7897373944636095  0.8988322752856301  0.9813502197110534
  0.2897440454397615  0.8988304605899688  0.5186551847952621
  0.7102552399314191  0.1011724732789454  0.4813459844929905
  0.7897431939450523  0.6011732218251685  0.4813505167269972
  0.2102561935266548  0.3988273814811496  0.5186490316832735
  0.7102589841156994  0.3988346417452933  0.9813503241006163
  0.2897397522069871  0.6011664966888922  0.0186492260458865
  0.0460492212442159  0.2824066018559275  0.0945010142496337
  0.9539508793105780  0.7175941266808407  0.9054979440159395
  0.4539432337726162  0.7176007537855402  0.5944987114371771
  0.5460558987630190  0.2823995533974475  0.4054994587285298
  0.9539502839429908  0.7824053177359963  0.4055011381759881
  0.0460490414126744  0.2175956529993354  0.5944984552761492
  0.5460437634425711  0.2175901018899621  0.9054969505115914
  0.4539561266411062  0.7824094120400427  0.0945027940500425
 
  0.00000000E+00  0.00000000E+00  0.00000000E+00
  0.00000000E+00  0.00000000E+00  0.00000000E+00
  0.00000000E+00  0.00000000E+00  0.00000000E+00
  0.00000000E+00  0.00000000E+00  0.00000000E+00
  0.00000000E+00  0.00000000E+00  0.00000000E+00
  0.00000000E+00  0.00000000E+00  0.00000000E+00
  0.00000000E+00  0.00000000E+00  0.00000000E+00
  0.00000000E+00  0.00000000E+00  0.00000000E+00
  0.00000000E+00  0.00000000E+00  0.00000000E+00
  0.00000000E+00  0.00000000E+00  0.00000000E+00
  0.00000000E+00  0.00000000E+00  0.00000000E+00
  0.00000000E+00  0.00000000E+00  0.00000000E+00
  0.00000000E+00  0.00000000E+00  0.00000000E+00
  0.00000000E+00  0.00000000E+00  0.00000000E+00
  0.00000000E+00  0.00000000E+00  0.00000000E+00
  0.00000000E+00  0.00000000E+00  0.00000000E+00
  0.00000000E+00  0.00000000E+00  0.00000000E+00
  0.00000000E+00  0.00000000E+00  0.00000000E+00
  0.00000000E+00  0.00000000E+00  0.00000000E+00
  0.00000000E+00  0.00000000E+00  0.00000000E+00
  0.00000000E+00  0.00000000E+00  0.00000000E+00
  0.00000000E+00  0.00000000E+00  0.00000000E+00
  0.00000000E+00  0.00000000E+00  0.00000000E+00
  0.00000000E+00  0.00000000E+00  0.00000000E+00
  0.00000000E+00  0.00000000E+00  0.00000000E+00
  0.00000000E+00  0.00000000E+00  0.00000000E+00
  0.00000000E+00  0.00000000E+00  0.00000000E+00
  0.00000000E+00  0.00000000E+00  0.00000000E+00
  0.00000000E+00  0.00000000E+00  0.00000000E+00
  0.00000000E+00  0.00000000E+00  0.00000000E+00
  0.00000000E+00  0.00000000E+00  0.00000000E+00
  0.00000000E+00  0.00000000E+00  0.00000000E+00
  0.00000000E+00  0.00000000E+00  0.00000000E+00
  0.00000000E+00  0.00000000E+00  0.00000000E+00
  0.00000000E+00  0.00000000E+00  0.00000000E+00
  0.00000000E+00  0.00000000E+00  0.00000000E+00
  0.00000000E+00  0.00000000E+00  0.00000000E+00
  0.00000000E+00  0.00000000E+00  0.00000000E+00
  0.00000000E+00  0.00000000E+00  0.00000000E+00
  0.00000000E+00  0.00000000E+00  0.00000000E+00
