C3 H3 N3                                
   1.00000000000000     
     9.6470000000000002    0.0000000000000000    0.0000000000000000
    -4.8235000000000001    8.3545499999999997    0.0000000000000000
     0.0000000000000000    0.0000000000000000    7.2809999999999997
   C    H    N 
    18    18    18
Direct
  0.0000000267764904  0.1352454161472423  0.2499999980667909
  0.9999999520314873  0.8647545889245194  0.7499999823596468
  0.8647544160379965  0.8647544129469722  0.2499999284207277
  0.1352456471803336  0.1352456352539519  0.7500000940168974
  0.1352454798789111  0.0000000237524915  0.2500000113965868
  0.8647545465422652  0.9999999838521632  0.7499999401547157
  0.6666400332229117  0.4685682838312104  0.5833232526610317
  0.6666400177671008  0.1980717814193156  0.0833232067891032
  0.5314315507840348  0.1980716383667058  0.5833231814719042
  0.8019284136164089  0.4685684551082900  0.0833232724496327
  0.8019283012542573  0.3333600079187704  0.5833232072149599
  0.5314316586126253  0.3333599502088660  0.0833232297812643
  0.3333600154564991  0.8019282674712258  0.9166767968320073
  0.3333599615236196  0.5314316801728438  0.4166767362088635
  0.1980715125079868  0.5314315467063651  0.9166767981712454
  0.4685685008699707  0.8019284140629424  0.4166767423929301
  0.4685683476433198  0.6666400242878865  0.9166767916461609
  0.1980716938656570  0.6666399934826543  0.4166767766367130
  0.9999999608418406  0.2484806798546231  0.2500000379562337
  0.0000000474445443  0.7515193260489852  0.7499999681009228
  0.7515191471784277  0.7515191762656244  0.2499999737797438
  0.2484808741454572  0.2484808379371231  0.7500000459703600
  0.2484808489548129  0.9999999883207806  0.2499999933574344
  0.7515191706165751  0.0000000151949848  0.7499999929679930
  0.6666453594864805  0.5817995785481784  0.5833358387412702
  0.6666454697585849  0.0848458855452847  0.0833357744276313
  0.4182003115786159  0.0848457599120067  0.5833357722451282
  0.9151542725208728  0.5817996905445710  0.0833358506246142
  0.9151542504843917  0.3333545866640861  0.5833357870171838
  0.4182003122241369  0.3333545942072647  0.0833358459912006
  0.3333545478025783  0.9151541315088139  0.9166642415731658
  0.3333546412122672  0.4182004270954849  0.4166641425907684
  0.0848456941506370  0.4182003038258060  0.9166641887725362
  0.5817997161455750  0.9151542510302662  0.4166641776800262
  0.5817996781475543  0.6666453772158363  0.9166641775375126
  0.0848457466970913  0.6666454391159107  0.4166642014498265
  0.8574115451163919  0.9999999638670616  0.2500000292394233
  0.1425884915187439  0.0000000610649096  0.7499999930230956
  0.0000000039171937  0.8574116364133815  0.2499999442888452
  0.0000000454513582  0.1425883934151031  0.7500000497966255
  0.1425884864971749  0.1425884208198696  0.2500000151518265
  0.8574115401200899  0.8574116062631916  0.7499999438800558
  0.5240616006474355  0.3332984037231626  0.5833313012871102
  0.8092367966262799  0.3332984967894603  0.0833312713855321
  0.6667015411313955  0.1907632571493778  0.5833312115007629
  0.6667015822653752  0.4759383454928994  0.0833313534323494
  0.8092367937141489  0.4759383614068895  0.5833312896927509
  0.5240615817226342  0.1907632413181304  0.0833312699003059
  0.1907632072826289  0.6667015290616618  0.9166687675026850
  0.4759384222355791  0.6667016226865883  0.4166686585932808
  0.3332983591982597  0.5240616163324034  0.9166686764088467
  0.3332984624029223  0.8092367480110809  0.4166687528553012
  0.4759384094592107  0.8092367066052404  0.9166687565492921
  0.1907632337308556  0.5240616648295529  0.4166686950572114
 
  0.00000000E+00  0.00000000E+00  0.00000000E+00
  0.00000000E+00  0.00000000E+00  0.00000000E+00
  0.00000000E+00  0.00000000E+00  0.00000000E+00
  0.00000000E+00  0.00000000E+00  0.00000000E+00
  0.00000000E+00  0.00000000E+00  0.00000000E+00
  0.00000000E+00  0.00000000E+00  0.00000000E+00
  0.00000000E+00  0.00000000E+00  0.00000000E+00
  0.00000000E+00  0.00000000E+00  0.00000000E+00
  0.00000000E+00  0.00000000E+00  0.00000000E+00
  0.00000000E+00  0.00000000E+00  0.00000000E+00
  0.00000000E+00  0.00000000E+00  0.00000000E+00
  0.00000000E+00  0.00000000E+00  0.00000000E+00
  0.00000000E+00  0.00000000E+00  0.00000000E+00
  0.00000000E+00  0.00000000E+00  0.00000000E+00
  0.00000000E+00  0.00000000E+00  0.00000000E+00
  0.00000000E+00  0.00000000E+00  0.00000000E+00
  0.00000000E+00  0.00000000E+00  0.00000000E+00
  0.00000000E+00  0.00000000E+00  0.00000000E+00
  0.00000000E+00  0.00000000E+00  0.00000000E+00
  0.00000000E+00  0.00000000E+00  0.00000000E+00
  0.00000000E+00  0.00000000E+00  0.00000000E+00
  0.00000000E+00  0.00000000E+00  0.00000000E+00
  0.00000000E+00  0.00000000E+00  0.00000000E+00
  0.00000000E+00  0.00000000E+00  0.00000000E+00
  0.00000000E+00  0.00000000E+00  0.00000000E+00
  0.00000000E+00  0.00000000E+00  0.00000000E+00
  0.00000000E+00  0.00000000E+00  0.00000000E+00
  0.00000000E+00  0.00000000E+00  0.00000000E+00
  0.00000000E+00  0.00000000E+00  0.00000000E+00
  0.00000000E+00  0.00000000E+00  0.00000000E+00
  0.00000000E+00  0.00000000E+00  0.00000000E+00
  0.00000000E+00  0.00000000E+00  0.00000000E+00
  0.00000000E+00  0.00000000E+00  0.00000000E+00
  0.00000000E+00  0.00000000E+00  0.00000000E+00
  0.00000000E+00  0.00000000E+00  0.00000000E+00
  0.00000000E+00  0.00000000E+00  0.00000000E+00
  0.00000000E+00  0.00000000E+00  0.00000000E+00
  0.00000000E+00  0.00000000E+00  0.00000000E+00
  0.00000000E+00  0.00000000E+00  0.00000000E+00
  0.00000000E+00  0.00000000E+00  0.00000000E+00
  0.00000000E+00  0.00000000E+00  0.00000000E+00
  0.00000000E+00  0.00000000E+00  0.00000000E+00
  0.00000000E+00  0.00000000E+00  0.00000000E+00
  0.00000000E+00  0.00000000E+00  0.00000000E+00
  0.00000000E+00  0.00000000E+00  0.00000000E+00
  0.00000000E+00  0.00000000E+00  0.00000000E+00
  0.00000000E+00  0.00000000E+00  0.00000000E+00
  0.00000000E+00  0.00000000E+00  0.00000000E+00
  0.00000000E+00  0.00000000E+00  0.00000000E+00
  0.00000000E+00  0.00000000E+00  0.00000000E+00
  0.00000000E+00  0.00000000E+00  0.00000000E+00
  0.00000000E+00  0.00000000E+00  0.00000000E+00
  0.00000000E+00  0.00000000E+00  0.00000000E+00
  0.00000000E+00  0.00000000E+00  0.00000000E+00
