naphthalene                             
   1.00000000000000     
     8.0846000000000000    0.0000000000000000    0.0000000000000000
     0.0000000000000000    5.9375000000000000    0.0000000000000000
    -4.9115300000000000    0.0000000000000000    7.1002999999999998
   C    H 
    20    16
Direct
  0.0831117140283197  0.0197785552344314  0.3301749210206779
  0.9168882990188720  0.9802214483076739  0.6698250663439396
  0.4168883364332103  0.5197785490699047  0.6698251284966901
  0.5831116487485559  0.4802214438720185  0.3301748697363251
  0.1135467268205375  0.1645042377363239  0.2236920451895159
  0.8864532841353991  0.8354957682099382  0.7763079418381054
  0.3864532782129046  0.6645042583573044  0.7763080100789281
  0.6135467024249479  0.3354957333400890  0.2236919870367444
  0.0484682715238094  0.1065200487988776  0.0376485343943287
  0.9515317390110667  0.8934799561802222  0.9623514515570193
  0.4515318735283671  0.6065201554792310  0.9623515837351775
  0.5484681104924078  0.3934798368141728  0.0376484158553936
  0.0764213605748267  0.2524572094456374  0.9241487242336746
  0.9235786485497002  0.7475427952477531  0.0758512620548970
  0.4235786918095741  0.7524572349022520  0.0758514250642222
  0.5764212973255169  0.2475427613343513  0.9241485769832209
  0.0128519465593797  0.1905510652759830  0.7442766264077960
  0.9871480666420354  0.8094489397233318  0.2557233609411895
  0.4871480171227773  0.6905510199997096  0.2557234746336832
  0.5128519727011280  0.3094489783474117  0.7442765271179255
  0.1330144163203428  0.0683595495740619  0.4722717477294296
  0.8669855933933945  0.9316404539223129  0.5277282385903561
  0.3669856973014944  0.5683595726464361  0.5277284315619042
  0.6330142888852990  0.4316404249484762  0.4722715696180089
  0.1867084192063544  0.3267747230995539  0.2801095454787657
  0.8132915876422260  0.6732252857013208  0.7198904422676264
  0.3132916029906596  0.8267747553211819  0.7198904616677098
  0.6867083811590007  0.1732252440979281  0.2801095386021473
  0.1499513481900152  0.4142003258041811  0.9819764248763860
  0.8500486564277452  0.5857996823063658  0.0180235617859807
  0.3500486951940758  0.9142002469841870  0.0180235962877688
  0.6499512938972671  0.0857997475466235  0.9819764006978531
  0.0372924027608121  0.3039228521231792  0.6595698502494045
  0.9627076064633542  0.6960771546822926  0.3404301368903262
  0.4627074742511326  0.8039229037803750  0.3404302179596286
  0.5372925152534762  0.1960770977849009  0.6595697810172254
 
  0.00000000E+00  0.00000000E+00  0.00000000E+00
  0.00000000E+00  0.00000000E+00  0.00000000E+00
  0.00000000E+00  0.00000000E+00  0.00000000E+00
  0.00000000E+00  0.00000000E+00  0.00000000E+00
  0.00000000E+00  0.00000000E+00  0.00000000E+00
  0.00000000E+00  0.00000000E+00  0.00000000E+00
  0.00000000E+00  0.00000000E+00  0.00000000E+00
  0.00000000E+00  0.00000000E+00  0.00000000E+00
  0.00000000E+00  0.00000000E+00  0.00000000E+00
  0.00000000E+00  0.00000000E+00  0.00000000E+00
  0.00000000E+00  0.00000000E+00  0.00000000E+00
  0.00000000E+00  0.00000000E+00  0.00000000E+00
  0.00000000E+00  0.00000000E+00  0.00000000E+00
  0.00000000E+00  0.00000000E+00  0.00000000E+00
  0.00000000E+00  0.00000000E+00  0.00000000E+00
  0.00000000E+00  0.00000000E+00  0.00000000E+00
  0.00000000E+00  0.00000000E+00  0.00000000E+00
  0.00000000E+00  0.00000000E+00  0.00000000E+00
  0.00000000E+00  0.00000000E+00  0.00000000E+00
  0.00000000E+00  0.00000000E+00  0.00000000E+00
  0.00000000E+00  0.00000000E+00  0.00000000E+00
  0.00000000E+00  0.00000000E+00  0.00000000E+00
  0.00000000E+00  0.00000000E+00  0.00000000E+00
  0.00000000E+00  0.00000000E+00  0.00000000E+00
  0.00000000E+00  0.00000000E+00  0.00000000E+00
  0.00000000E+00  0.00000000E+00  0.00000000E+00
  0.00000000E+00  0.00000000E+00  0.00000000E+00
  0.00000000E+00  0.00000000E+00  0.00000000E+00
  0.00000000E+00  0.00000000E+00  0.00000000E+00
  0.00000000E+00  0.00000000E+00  0.00000000E+00
  0.00000000E+00  0.00000000E+00  0.00000000E+00
  0.00000000E+00  0.00000000E+00  0.00000000E+00
  0.00000000E+00  0.00000000E+00  0.00000000E+00
  0.00000000E+00  0.00000000E+00  0.00000000E+00
  0.00000000E+00  0.00000000E+00  0.00000000E+00
  0.00000000E+00  0.00000000E+00  0.00000000E+00
