EA0  6.639  6.639  8.918 90.000 90.000 9
   1.00000000000000     
     6.6390000000000002    0.0000000000000000    0.0000000000000000
     0.0000000000000000    6.6390000000000002    0.0000000000000000
     0.0000000000000000    0.0000000000000000    8.9179999999999993
   C    H 
    20    32
Direct
  0.9999999803788100  0.9999999833435496  0.1994850889594346
  0.9752659109246338  0.1880603540704300  0.0999197273463679
  0.1626408361939511  0.2128199171792389  0.9995056718004918
  0.0247340951820973  0.8119396281336648  0.0999196780067990
  0.7871803370545862  0.1626408910975385  0.0004944825207502
  0.1880602259059145  0.0247343314997224  0.9000805279268462
  0.8373591439235781  0.7871800491005061  0.9995056698497322
  0.2128196315432334  0.8373590936743085  0.0004944685513024
  0.8119397636788506  0.9752656955210028  0.9000805296375773
  0.9999999147593641  0.9999999970643074  0.8005150198362614
  0.5000000262854698  0.5000000371890607  0.3005149210092952
  0.5000000638839666  0.4999999995438102  0.6994849458761507
  0.5247340492932224  0.6880603799268883  0.4000803185056441
  0.6880602634608053  0.4752656691495858  0.5999194613595975
  0.4752659661795704  0.3119396361476348  0.4000802710112623
  0.3119398026638223  0.5247343055043316  0.5999194847124087
  0.3373591111855703  0.7128199265023554  0.5004943764633438
  0.7128196627452752  0.6626408642917951  0.4995055438097680
  0.6626409136424627  0.2871800720538928  0.5004943301467932
  0.2871803810644593  0.3373591440602510  0.4995055018081800
  0.1323506455678753  0.0173046800414411  0.2730431658899164
  0.9578511755281554  0.3227730449854320  0.1712364859765856
  0.2979584287690997  0.2348204205209967  0.0691703684258513
  0.1467229118162976  0.3483165597013738  0.9288509578831778
  0.8676493441955770  0.9826952993473554  0.2730431671981179
  0.0421487919401358  0.6772269346962503  0.1712364734487082
  0.7651801528586759  0.2979579323216015  0.9308290527870895
  0.6516834204271120  0.1467233276893154  0.0711488845123327
  0.3227732867298059  0.0421487181901767  0.8287641676099682
  0.7020415316975246  0.7651795544803761  0.0691703527540284
  0.8532770697087528  0.6516834102467328  0.9288509369123616
  0.2348198156916155  0.7020420341820568  0.9308290397417522
  0.3483165448887959  0.8532766408167589  0.0711488791276622
  0.6772266904249591  0.9578512580105922  0.8287641582893741
  0.9826945310701731  0.1323503264536754  0.7269566974024713
  0.0173054337253902  0.8676497376337267  0.7269566870096540
  0.3676493370280269  0.5173047454646067  0.2269568756615925
  0.5173054230390974  0.6323502615171037  0.7730433182574430
  0.6323506714731408  0.4826953461560066  0.2269568715011232
  0.4826945827445641  0.3676497133326748  0.7730433310596609
  0.5421488127541423  0.8227730806498528  0.3287635321553921
  0.8227732894187056  0.4578512960822607  0.6712358222124237
  0.4578512209857664  0.1772269610666584  0.3287634840078439
  0.1772267075769491  0.5421486644900710  0.6712358227984936
  0.2020415739292787  0.7348204116930717  0.4308296431997576
  0.7348198135035702  0.7979579828366354  0.5691709744244378
  0.7979584636444628  0.2651796107374267  0.4308296236695881
  0.2651801993564931  0.2020420271165904  0.5691709217169958
  0.3532770632867397  0.8483165379713853  0.5711490670612278
  0.8483165905278796  0.6467233918338735  0.4288511135051820
  0.6467229569911268  0.1516834673337257  0.5711490208453682
  0.1516834387504815  0.3532766473463269  0.4288510838164257
 
  0.00000000E+00  0.00000000E+00  0.00000000E+00
  0.00000000E+00  0.00000000E+00  0.00000000E+00
  0.00000000E+00  0.00000000E+00  0.00000000E+00
  0.00000000E+00  0.00000000E+00  0.00000000E+00
  0.00000000E+00  0.00000000E+00  0.00000000E+00
  0.00000000E+00  0.00000000E+00  0.00000000E+00
  0.00000000E+00  0.00000000E+00  0.00000000E+00
  0.00000000E+00  0.00000000E+00  0.00000000E+00
  0.00000000E+00  0.00000000E+00  0.00000000E+00
  0.00000000E+00  0.00000000E+00  0.00000000E+00
  0.00000000E+00  0.00000000E+00  0.00000000E+00
  0.00000000E+00  0.00000000E+00  0.00000000E+00
  0.00000000E+00  0.00000000E+00  0.00000000E+00
  0.00000000E+00  0.00000000E+00  0.00000000E+00
  0.00000000E+00  0.00000000E+00  0.00000000E+00
  0.00000000E+00  0.00000000E+00  0.00000000E+00
  0.00000000E+00  0.00000000E+00  0.00000000E+00
  0.00000000E+00  0.00000000E+00  0.00000000E+00
  0.00000000E+00  0.00000000E+00  0.00000000E+00
  0.00000000E+00  0.00000000E+00  0.00000000E+00
  0.00000000E+00  0.00000000E+00  0.00000000E+00
  0.00000000E+00  0.00000000E+00  0.00000000E+00
  0.00000000E+00  0.00000000E+00  0.00000000E+00
  0.00000000E+00  0.00000000E+00  0.00000000E+00
  0.00000000E+00  0.00000000E+00  0.00000000E+00
  0.00000000E+00  0.00000000E+00  0.00000000E+00
  0.00000000E+00  0.00000000E+00  0.00000000E+00
  0.00000000E+00  0.00000000E+00  0.00000000E+00
  0.00000000E+00  0.00000000E+00  0.00000000E+00
  0.00000000E+00  0.00000000E+00  0.00000000E+00
  0.00000000E+00  0.00000000E+00  0.00000000E+00
  0.00000000E+00  0.00000000E+00  0.00000000E+00
  0.00000000E+00  0.00000000E+00  0.00000000E+00
  0.00000000E+00  0.00000000E+00  0.00000000E+00
  0.00000000E+00  0.00000000E+00  0.00000000E+00
  0.00000000E+00  0.00000000E+00  0.00000000E+00
  0.00000000E+00  0.00000000E+00  0.00000000E+00
  0.00000000E+00  0.00000000E+00  0.00000000E+00
  0.00000000E+00  0.00000000E+00  0.00000000E+00
  0.00000000E+00  0.00000000E+00  0.00000000E+00
  0.00000000E+00  0.00000000E+00  0.00000000E+00
  0.00000000E+00  0.00000000E+00  0.00000000E+00
  0.00000000E+00  0.00000000E+00  0.00000000E+00
  0.00000000E+00  0.00000000E+00  0.00000000E+00
  0.00000000E+00  0.00000000E+00  0.00000000E+00
  0.00000000E+00  0.00000000E+00  0.00000000E+00
  0.00000000E+00  0.00000000E+00  0.00000000E+00
  0.00000000E+00  0.00000000E+00  0.00000000E+00
  0.00000000E+00  0.00000000E+00  0.00000000E+00
  0.00000000E+00  0.00000000E+00  0.00000000E+00
  0.00000000E+00  0.00000000E+00  0.00000000E+00
  0.00000000E+00  0.00000000E+00  0.00000000E+00
