 C  H  O 
 1.0000000000000000
    10.9317761999999998    0.0000000000000000   -0.0129284000000000
     0.0000000000000000    8.7402311000000008    0.0000000000000000
    -0.2922970000000000    0.0000000000000000   10.2113923999999994
 C   H   O  
  32  48  32
Cartesian
  0.3081000000000000  8.1494999999999997  4.9473000000000003
  5.0117000000000003  0.5907000000000000  0.1519000000000000
  0.3811000000000000  4.9607999999999999  2.3944999999999999
  4.9386000000000001  3.7793999999999999  2.7048000000000001
  1.3234999999999999  8.4467999999999996  3.8714000000000000
  3.9963000000000002  0.2935000000000000  1.2278000000000000
  1.3965000000000001  4.6635999999999997  1.3185000000000000
  3.9232000000000000  4.0766999999999998  3.7806999999999999
  0.1619515000000000  8.1494999999999997 10.0529962000000008
  4.8655514999999996  0.5907000000000000  5.2575962000000001
  0.2349515000000000  4.9607999999999999  7.5001962000000004
  4.7924515000000003  3.7793999999999999  7.8104962000000002
  1.1773515000000001  8.4467999999999996  8.9770962000000001
  3.8501514999999999  0.2935000000000000  6.3334961999999999
  1.2503515000000001  4.6635999999999997  6.4241961999999999
  3.7770514999999998  4.0766999999999998  8.8863962000000001
  5.7739881000000004  8.1494999999999997  4.9408358000000003
 10.4775881000000002  0.5907000000000000  0.1454358000000000
  5.8469880999999999  4.9607999999999999  2.3880357999999999
 10.4044881000000000  3.7793999999999999  2.6983358000000002
  6.7893881000000000  8.4467999999999996  3.8649358000000000
  9.4621881000000005  0.2935000000000000  1.2213358000000001
  6.8623881000000004  4.6635999999999997  1.3120358000000001
  9.3890881000000004  4.0766999999999998  3.7742358000000000
  5.6278395999999997  8.1494999999999997 10.0465319999999991
 10.3314395999999995  0.5907000000000000  5.2511320000000001
  5.7008396000000001  4.9607999999999999  7.4937319999999996
 10.2583395999999993  3.7793999999999999  7.8040320000000003
  6.6432396000000002  8.4467999999999996  8.9706320000000002
  9.3160395999999999  0.2935000000000000  6.3270320000000000
  6.7162395999999998  4.6635999999999997  6.4177320000000000
  9.2429395999999997  4.0766999999999998  8.8799320000000002
  5.1887999999999996  7.2771999999999997  4.6037999999999997
  0.1309000000000000  1.4630000000000001  0.4955000000000000
  5.2618999999999998  5.8331999999999997  2.0508999999999999
  0.0578000000000000  2.9070999999999998  3.0482999999999998
  0.9992000000000000  7.8018000000000001  0.7289000000000000
  4.3205999999999998  0.9385000000000000  4.3703000000000003
  0.9261000000000000  5.3086000000000002  3.2818000000000001
  4.3936000000000002  3.4317000000000002  1.8174999999999999
  2.9177000000000000  7.7300000000000004  3.0255999999999998
  2.4020000000000001  1.0102000000000000  2.0737000000000001
  2.9908000000000001  5.3803000000000001  0.4727000000000000
  2.3290000000000002  3.3599000000000001  4.6265000000000001
  5.0426514999999998  7.2771999999999997  9.7094962000000002
 -0.0152485000000000  1.4630000000000001  5.6011962000000004
  5.1157515000000000  5.8331999999999997  7.1565962000000001
 -0.0883485000000000  2.9070999999999998  8.1539961999999999
  0.8530515000000000  7.8018000000000001  5.8345962000000000
  4.1744515000000000  0.9385000000000000  9.4759962000000009
  0.7799515000000000  5.3086000000000002  8.3874961999999993
  4.2474515000000004  3.4317000000000002  6.9231961999999996
  2.7715515000000002  7.7300000000000004  8.1312961999999995
  2.2558514999999999  1.0102000000000000  7.1793962000000002
  2.8446514999999999  5.3803000000000001  5.5783962000000002
  2.1828514999999999  3.3599000000000001  9.7321962000000006
 10.6546880999999996  7.2771999999999997  4.5973357999999998
  5.5967881000000004  1.4630000000000001  0.4890358000000000
 10.7277880999999997  5.8331999999999997  2.0444358000000000
  5.5236881000000002  2.9070999999999998  3.0418357999999999
  6.4650881000000000  7.8018000000000001  0.7224358000000000
  9.7864880999999997  0.9385000000000000  4.3638358000000004
  6.3919880999999998  5.3086000000000002  3.2753358000000001
  9.8594881000000001  3.4317000000000002  1.8110358000000000
  8.3835881000000008  7.7300000000000004  3.0191357999999999
  7.8678881000000001  1.0102000000000000  2.0672358000000002
  8.4566880999999992  5.3803000000000001  0.4662358000000000
  7.7948880999999997  3.3599000000000001  4.6200358000000001
 10.5085396000000006  7.2771999999999997  9.7030320000000003
  5.4506395999999997  1.4630000000000001  5.5947319999999996
 10.5816396000000008  5.8331999999999997  7.1501320000000002
  5.3775396000000004  2.9070999999999998  8.1475320000000000
  6.3189396000000002  7.8018000000000001  5.8281320000000001
  9.6403396000000008  0.9385000000000000  9.4695319999999992
  6.2458396000000000  5.3086000000000002  8.3810319999999994
  9.7133395999999994  3.4317000000000002  6.9167319999999997
  8.2374396000000001  7.7300000000000004  8.1248319999999996
  7.7217396000000003  1.0102000000000000  7.1729320000000003
  8.3105396000000002  5.3803000000000001  5.5719320000000003
  7.6487395999999999  3.3599000000000001  9.7257320000000007
  1.2795000000000001  0.7091000000000000  3.1444000000000001
  4.0403000000000002  8.0311000000000003  1.9548000000000001
  1.3526000000000000  3.6610000000000000  0.5916000000000000
  3.9672000000000001  5.0792000000000002  4.5076999999999998
  2.2587999999999999  7.5193000000000003  3.7784000000000000
  3.0609000000000002  1.2209000000000001  1.3208000000000000
  2.3319000000000001  5.5910000000000002  1.2255000000000000
  2.9878000000000000  3.1492000000000000  3.8736999999999999
  1.1333515000000001  0.7091000000000000  8.2500961999999998
  3.8941515000000000  8.0311000000000003  7.0604962000000002
  1.2064515000000000  3.6610000000000000  5.6972962000000003
  3.8210514999999998  5.0792000000000002  9.6133962000000004
  2.1126515000000001  7.5193000000000003  8.8840962000000001
  2.9147514999999999  1.2209000000000001  6.4264961999999999
  2.1857514999999998  5.5910000000000002  6.3311961999999999
  2.8416515000000002  3.1492000000000000  8.9793962000000001
  6.7453881000000004  0.7091000000000000  3.1379358000000002
  9.5061880999999993  8.0311000000000003  1.9483358000000000
  6.8184880999999997  3.6610000000000000  0.5851358000000000
  9.4330881000000009  5.0792000000000002  4.5012357999999999
  7.7246880999999998  7.5193000000000003  3.7719358000000001
  8.5267880999999992  1.2209000000000001  1.3143358000000001
  7.7977881000000000  5.5910000000000002  1.2190357999999999
  8.4536881000000008  3.1492000000000000  3.8672358000000000
  6.5992395999999998  0.7091000000000000  8.2436319999999998
  9.3600396000000003  8.0311000000000003  7.0540320000000003
  6.6723395999999999  3.6610000000000000  5.6908320000000003
  9.2869396000000002  5.0792000000000002  9.6069320000000005
  7.5785396000000000  7.5193000000000003  8.8776320000000002
  8.3806396000000003  1.2209000000000001  6.4200320000000000
  7.6516396000000002  5.5910000000000002  6.3247320000000000
  8.3075396000000001  3.1492000000000000  8.9729320000000001
