C O2                                    
   1.00000000000000     
     5.6239999999999997    0.0000000000000000    0.0000000000000000
     0.0000000000000000    5.6239999999999997    0.0000000000000000
     0.0000000000000000    0.0000000000000000    5.6239999999999997
   C    O 
     4     8
Direct
  0.0000000106680957  0.0000000081770040  0.0000000078324263
  0.5000000018504878  0.0000000005101199  0.4999999960434778
  0.0000000020194548  0.4999999975239930  0.5000000012174652
  0.4999999970126581  0.5000000027272975  0.0000000031177052
  0.1199755539522585  0.1199755451040758  0.1199755505739546
  0.8800244464601832  0.8800244559767663  0.8800244507595778
  0.3800244532338226  0.8800244645202966  0.6199755533969906
  0.6199755441679571  0.1199755410528525  0.3800244492693707
  0.8800244260469370  0.6199755745605557  0.3800244193666771
  0.1199755787174723  0.3800244278651803  0.6199755786822365
  0.6199755313970599  0.3800244577804222  0.8800244623952409
  0.3800244704736144  0.6199755402014304  0.1199755433448857
 
  0.00000000E+00  0.00000000E+00  0.00000000E+00
  0.00000000E+00  0.00000000E+00  0.00000000E+00
  0.00000000E+00  0.00000000E+00  0.00000000E+00
  0.00000000E+00  0.00000000E+00  0.00000000E+00
  0.00000000E+00  0.00000000E+00  0.00000000E+00
  0.00000000E+00  0.00000000E+00  0.00000000E+00
  0.00000000E+00  0.00000000E+00  0.00000000E+00
  0.00000000E+00  0.00000000E+00  0.00000000E+00
  0.00000000E+00  0.00000000E+00  0.00000000E+00
  0.00000000E+00  0.00000000E+00  0.00000000E+00
  0.00000000E+00  0.00000000E+00  0.00000000E+00
  0.00000000E+00  0.00000000E+00  0.00000000E+00
