C3 H4 N2                                
   1.00000000000000     
     7.5819999999999999    0.0000000000000000    0.0000000000000000
     0.0000000000000000    5.3710000000000004    0.0000000000000000
    -4.7432999999999996    0.0000000000000000    8.5641800000000003
   C    N    H 
    12     8    16
Direct
  0.1564161932491037  0.2174874167765194  0.1789157409344641
  0.8435837981858412  0.7825125970679587  0.8210842700666806
  0.8435838655119240  0.7174874241206662  0.3210843019008435
  0.1564161289201321  0.2825125597455214  0.6789157000106609
  0.3089164812424221  0.5538563679603355  0.2992826065058962
  0.6910835171025673  0.4461436574332311  0.7007173811670954
  0.6910836104560543  0.0538563805960249  0.2007173876136796
  0.3089163839770316  0.9461436005307455  0.7992826050553919
  0.3168182188776916  0.5476876495521490  0.1619506462667408
  0.6831817846797220  0.4523123363521091  0.8380493432888354
  0.6831818672985256  0.0476877313786721  0.3380493824878074
  0.3168181529775773  0.9523122772536334  0.6619506236980761
  0.2188036254900130  0.3329444396224325  0.0866535889129339
  0.7811963766568307  0.6670555368904292  0.9133464166139710
  0.7811964406016086  0.8329444558594912  0.4133464280377641
  0.2188035800815701  0.1670555554337822  0.5866535824822308
  0.2081886327692150  0.3462310981727049  0.3093361933043897
  0.7918113589702177  0.6537689453384903  0.6906638075478148
  0.7918114154049061  0.8462310411648006  0.1906638134678853
  0.2081885650301999  0.1537689234022078  0.8093361805161359
  0.2041807582722895  0.2664969533803454  0.9804328128165193
  0.7958192362287484  0.7335030098485188  0.0195671947477970
  0.7958192818923026  0.7664970164374904  0.5195672008742888
  0.2041807374840419  0.2335030110060214  0.4804328112940574
  0.0760366362839353  0.0417896621770118  0.1500441107060329
  0.9239633535032288  0.9582103554758498  0.8499559108554466
  0.9239634022368619  0.5417896450342218  0.3499559137233070
  0.0760365882021911  0.4582103388977892  0.6500440905242910
  0.3696581987663028  0.6937724060831215  0.3903183316907028
  0.6303418048213085  0.3062276318059765  0.6096816490889577
  0.6303418658070233  0.1937723782246397  0.1096816851074413
  0.3696581257445185  0.8062275933582609  0.8903183057785993
  0.3834787299495168  0.6747872051426421  0.1139442120860544
  0.6165212816085317  0.3252127587071071  0.8860557726698964
  0.6165213772534529  0.1747872555630096  0.3860557946087043
  0.3834786564625947  0.8252127662060874  0.6139442115485644
 
  0.00000000E+00  0.00000000E+00  0.00000000E+00
  0.00000000E+00  0.00000000E+00  0.00000000E+00
  0.00000000E+00  0.00000000E+00  0.00000000E+00
  0.00000000E+00  0.00000000E+00  0.00000000E+00
  0.00000000E+00  0.00000000E+00  0.00000000E+00
  0.00000000E+00  0.00000000E+00  0.00000000E+00
  0.00000000E+00  0.00000000E+00  0.00000000E+00
  0.00000000E+00  0.00000000E+00  0.00000000E+00
  0.00000000E+00  0.00000000E+00  0.00000000E+00
  0.00000000E+00  0.00000000E+00  0.00000000E+00
  0.00000000E+00  0.00000000E+00  0.00000000E+00
  0.00000000E+00  0.00000000E+00  0.00000000E+00
  0.00000000E+00  0.00000000E+00  0.00000000E+00
  0.00000000E+00  0.00000000E+00  0.00000000E+00
  0.00000000E+00  0.00000000E+00  0.00000000E+00
  0.00000000E+00  0.00000000E+00  0.00000000E+00
  0.00000000E+00  0.00000000E+00  0.00000000E+00
  0.00000000E+00  0.00000000E+00  0.00000000E+00
  0.00000000E+00  0.00000000E+00  0.00000000E+00
  0.00000000E+00  0.00000000E+00  0.00000000E+00
  0.00000000E+00  0.00000000E+00  0.00000000E+00
  0.00000000E+00  0.00000000E+00  0.00000000E+00
  0.00000000E+00  0.00000000E+00  0.00000000E+00
  0.00000000E+00  0.00000000E+00  0.00000000E+00
  0.00000000E+00  0.00000000E+00  0.00000000E+00
  0.00000000E+00  0.00000000E+00  0.00000000E+00
  0.00000000E+00  0.00000000E+00  0.00000000E+00
  0.00000000E+00  0.00000000E+00  0.00000000E+00
  0.00000000E+00  0.00000000E+00  0.00000000E+00
  0.00000000E+00  0.00000000E+00  0.00000000E+00
  0.00000000E+00  0.00000000E+00  0.00000000E+00
  0.00000000E+00  0.00000000E+00  0.00000000E+00
  0.00000000E+00  0.00000000E+00  0.00000000E+00
  0.00000000E+00  0.00000000E+00  0.00000000E+00
  0.00000000E+00  0.00000000E+00  0.00000000E+00
  0.00000000E+00  0.00000000E+00  0.00000000E+00
