EA0  7.390  9.420  6.810 90.000 90.000 9
   1.00000000000000     
     7.3899999999999997    0.0000000000000000    0.0000000000000000
     0.0000000000000000    9.4199999999999999    0.0000000000000000
     0.0000000000000000    0.0000000000000000    6.8099999999999996
   C    H 
    24    24
Direct
  0.9399657475418053  0.1406387317645610  0.9936062068657208
  0.8620300420743732  0.0452458891050469  0.1261299085903786
  0.0774863192172504  0.0952467899260370  0.8675339616362052
  0.9225136849009345  0.9047532102893356  0.1324660452670301
  0.1379699581485596  0.9547541124694732  0.8738700912630861
  0.0600342587615330  0.8593612699520676  0.0063937991123879
  0.5600342518681387  0.6406387131386566  0.9936062057375494
  0.9399657418660397  0.3593612746532742  0.4936061922787758
  0.5600342387030750  0.8593612682982581  0.4936062244810415
  0.4399657538095596  0.3593612853411230  0.0063937889996240
  0.0600342522009214  0.6406387270079463  0.5063938022689740
  0.4399657558104551  0.1406387302223280  0.5063937803914627
  0.6379699541704937  0.5452458862762342  0.1261299036405674
  0.8620300456134871  0.4547541089677054  0.6261299101111035
  0.6379699674965948  0.9547541091919953  0.6261299151925854
  0.3620300453981216  0.4547541124473113  0.8738700972574591
  0.1379699537973806  0.5452458926630612  0.3738700897008442
  0.3620300326603356  0.0452458894294239  0.3738700841965468
  0.4225136867261838  0.5952467695304549  0.8675339725640185
  0.0774863095269396  0.4047532188072438  0.3675339531539024
  0.4225136719565441  0.9047532130197595  0.3675339811190170
  0.5774863169490061  0.4047532299743040  0.1324660208725419
  0.9225136864333550  0.5952467814182256  0.6324660397652480
  0.5774863244480670  0.0952467866241022  0.6324660255568659
  0.8936229644050329  0.2504892002116819  0.9883324302459258
  0.7536779885596090  0.0792908638298471  0.2240732706568380
  0.1372585675095479  0.1691504035201135  0.7630336514830134
  0.8627414325062048  0.8308495970067824  0.2369663484147253
  0.2463220111741009  0.9207091364571980  0.7759267292528307
  0.1063770358083929  0.7495107997956083  0.0116675700709408
  0.6063770341717287  0.7504892113943384  0.9883324276238667
  0.8936229612185613  0.2495107961110534  0.4883324210427986
  0.6063770406094520  0.7495107895102606  0.4883324313306545
  0.3936229660073920  0.2495107885272034  0.0116675720991282
  0.1063770385535037  0.7504892038755244  0.5116675787036584
  0.3936229592119034  0.2504892104392837  0.5116675688575683
  0.7463219985600347  0.5792908636622087  0.2240732610807399
  0.7536779948608299  0.4207091315244114  0.7240732610936718
  0.7463219997153061  0.9207091381289771  0.7240732545416648
  0.2536780011863442  0.4207091359646782  0.7759267390579296
  0.2463220054003088  0.5792908687790543  0.2759267390403508
  0.2536780005104902  0.0792908614843242  0.2759267452862346
  0.3627414330724932  0.6691503982725990  0.7630336461426026
  0.1372585694638957  0.3308496055015766  0.2630336418257713
  0.3627414237266109  0.8308495920003338  0.2630336393999286
  0.6372585669539461  0.3308496010959914  0.2369663539592466
  0.8627414305080876  0.6691503950569313  0.7369663583683348
  0.6372585762270546  0.1691504073321113  0.7369663603986254
 
  0.00000000E+00  0.00000000E+00  0.00000000E+00
  0.00000000E+00  0.00000000E+00  0.00000000E+00
  0.00000000E+00  0.00000000E+00  0.00000000E+00
  0.00000000E+00  0.00000000E+00  0.00000000E+00
  0.00000000E+00  0.00000000E+00  0.00000000E+00
  0.00000000E+00  0.00000000E+00  0.00000000E+00
  0.00000000E+00  0.00000000E+00  0.00000000E+00
  0.00000000E+00  0.00000000E+00  0.00000000E+00
  0.00000000E+00  0.00000000E+00  0.00000000E+00
  0.00000000E+00  0.00000000E+00  0.00000000E+00
  0.00000000E+00  0.00000000E+00  0.00000000E+00
  0.00000000E+00  0.00000000E+00  0.00000000E+00
  0.00000000E+00  0.00000000E+00  0.00000000E+00
  0.00000000E+00  0.00000000E+00  0.00000000E+00
  0.00000000E+00  0.00000000E+00  0.00000000E+00
  0.00000000E+00  0.00000000E+00  0.00000000E+00
  0.00000000E+00  0.00000000E+00  0.00000000E+00
  0.00000000E+00  0.00000000E+00  0.00000000E+00
  0.00000000E+00  0.00000000E+00  0.00000000E+00
  0.00000000E+00  0.00000000E+00  0.00000000E+00
  0.00000000E+00  0.00000000E+00  0.00000000E+00
  0.00000000E+00  0.00000000E+00  0.00000000E+00
  0.00000000E+00  0.00000000E+00  0.00000000E+00
  0.00000000E+00  0.00000000E+00  0.00000000E+00
  0.00000000E+00  0.00000000E+00  0.00000000E+00
  0.00000000E+00  0.00000000E+00  0.00000000E+00
  0.00000000E+00  0.00000000E+00  0.00000000E+00
  0.00000000E+00  0.00000000E+00  0.00000000E+00
  0.00000000E+00  0.00000000E+00  0.00000000E+00
  0.00000000E+00  0.00000000E+00  0.00000000E+00
  0.00000000E+00  0.00000000E+00  0.00000000E+00
  0.00000000E+00  0.00000000E+00  0.00000000E+00
  0.00000000E+00  0.00000000E+00  0.00000000E+00
  0.00000000E+00  0.00000000E+00  0.00000000E+00
  0.00000000E+00  0.00000000E+00  0.00000000E+00
  0.00000000E+00  0.00000000E+00  0.00000000E+00
  0.00000000E+00  0.00000000E+00  0.00000000E+00
  0.00000000E+00  0.00000000E+00  0.00000000E+00
  0.00000000E+00  0.00000000E+00  0.00000000E+00
  0.00000000E+00  0.00000000E+00  0.00000000E+00
  0.00000000E+00  0.00000000E+00  0.00000000E+00
  0.00000000E+00  0.00000000E+00  0.00000000E+00
  0.00000000E+00  0.00000000E+00  0.00000000E+00
  0.00000000E+00  0.00000000E+00  0.00000000E+00
  0.00000000E+00  0.00000000E+00  0.00000000E+00
  0.00000000E+00  0.00000000E+00  0.00000000E+00
  0.00000000E+00  0.00000000E+00  0.00000000E+00
  0.00000000E+00  0.00000000E+00  0.00000000E+00
