Urethane                                
   1.00000000000000     
     5.0510000000000002    0.0000000000000000    0.0000000000000000
     1.6188300000000000    6.8215500000000002    0.0000000000000000
    -1.8988100000000001   -1.0777500000000000    7.2201000000000004
   C    N    O    H 
     6     2     4    14
Direct
  0.8619579984279576  0.7964556150538030  0.3658560686910386
  0.1380500763356667  0.2035454041756218  0.6341513150897022
  0.7815643952276059  0.5992112775332661  0.2763162475017292
  0.2184388007567692  0.4007909165479849  0.7236851414452194
  0.0080650569882424  0.2797163036436237  0.1532957230560786
  0.9919057609911784  0.7202906712036552  0.8467002824255597
  0.2524537629005369  0.1628362485123917  0.1316948280672595
  0.7475471842247133  0.8371544139058288  0.8683066109779044
  0.0366643288728801  0.4645693398613005  0.2400713540588099
  0.9633337337412956  0.5354269493675738  0.7599282758580623
  0.7796530548005464  0.2251446384818343  0.1028943530668000
  0.2203304108161784  0.7748573322583960  0.8970802946613772
  0.6771254252049506  0.9024239418848695  0.3983961474273665
  0.3228905636279694  0.0975831413599006  0.6016175129854883
  0.0197240599045973  0.7819591663781563  0.4949607597094243
  0.9802940766612442  0.2180276382000508  0.5050385314597426
  0.9450887207400058  0.8575500860361668  0.2726110376616433
  0.0549244716868077  0.1424418398685767  0.7273949841244941
  0.6973149557790363  0.5367771996313713  0.3683322352941590
  0.3026907780335076  0.4632208866351862  0.6316688182570930
  0.6278591025623338  0.6101173200862313  0.1450890702363948
  0.3721427537942463  0.3898838477465225  0.8549128831001540
  0.4282106956605809  0.2206616709516411  0.1550435426090986
  0.5717862760717219  0.7793334112918364  0.8449597264495211
  0.2471396262724071  0.0253158463881228  0.0545200871936135
  0.7528439609170198  0.9747049079960713  0.9454740055922850
 
  0.00000000E+00  0.00000000E+00  0.00000000E+00
  0.00000000E+00  0.00000000E+00  0.00000000E+00
  0.00000000E+00  0.00000000E+00  0.00000000E+00
  0.00000000E+00  0.00000000E+00  0.00000000E+00
  0.00000000E+00  0.00000000E+00  0.00000000E+00
  0.00000000E+00  0.00000000E+00  0.00000000E+00
  0.00000000E+00  0.00000000E+00  0.00000000E+00
  0.00000000E+00  0.00000000E+00  0.00000000E+00
  0.00000000E+00  0.00000000E+00  0.00000000E+00
  0.00000000E+00  0.00000000E+00  0.00000000E+00
  0.00000000E+00  0.00000000E+00  0.00000000E+00
  0.00000000E+00  0.00000000E+00  0.00000000E+00
  0.00000000E+00  0.00000000E+00  0.00000000E+00
  0.00000000E+00  0.00000000E+00  0.00000000E+00
  0.00000000E+00  0.00000000E+00  0.00000000E+00
  0.00000000E+00  0.00000000E+00  0.00000000E+00
  0.00000000E+00  0.00000000E+00  0.00000000E+00
  0.00000000E+00  0.00000000E+00  0.00000000E+00
  0.00000000E+00  0.00000000E+00  0.00000000E+00
  0.00000000E+00  0.00000000E+00  0.00000000E+00
  0.00000000E+00  0.00000000E+00  0.00000000E+00
  0.00000000E+00  0.00000000E+00  0.00000000E+00
  0.00000000E+00  0.00000000E+00  0.00000000E+00
  0.00000000E+00  0.00000000E+00  0.00000000E+00
  0.00000000E+00  0.00000000E+00  0.00000000E+00
  0.00000000E+00  0.00000000E+00  0.00000000E+00
