C3 H6 O3                                
   1.00000000000000     
     9.3200000000000003    0.0000000000000000    0.0000000000000000
    -4.6600000000000001    8.0713600000000003    0.0000000000000000
     0.0000000000000000    0.0000000000000000    8.1959999999999997
   C    H    O 
    18    36    18
Direct
  0.1358621973390797  0.1511594444058986  0.9748004534181547
  0.8488363945374573  0.9846997141861706  0.9748012232353958
  0.0152948234304944  0.8641320122832994  0.9747976461099483
  0.8488405555941014  0.8641378026609203  0.4748004534181547
  0.0153002858138294  0.1511636054625427  0.4748012232353958
  0.1358679877167006  0.9847051765695056  0.4747976461099483
  0.8025831078278500  0.4844335700717934  0.3082056022435964
  0.5155650915300001  0.3181440722974145  0.3082057508293801
  0.6818538398107350  0.1974166743725192  0.3082080744537592
  0.5155664299282066  0.1974168921721500  0.8082056022435964
  0.6818559277025855  0.4844349084699999  0.8082057508293801
  0.8025833256274808  0.3181461601892650  0.8082080744537592
  0.4692208507819160  0.8177849871708887  0.6414417425815842
  0.1822087298632056  0.6514378076622265  0.6414429226503202
  0.3485562450892772  0.5307724848993374  0.6414374430603758
  0.1822150128291113  0.5307791492180840  0.1414417425815842
  0.3485621923377735  0.8177912701367944  0.1414429226503202
  0.4692275151006626  0.6514437549107228  0.1414374430603758
  0.1372871071070776  0.1526215354386693  0.8398296437857979
  0.8473779890230944  0.9846686681140255  0.8398306943010354
  0.0153265875802902  0.8627038865755594  0.8398274496360045
  0.8473784645613307  0.8627128928929224  0.3398296437858050
  0.0153313318859745  0.1526220109768985  0.3398306943010354
  0.1372961134244406  0.9846734124197098  0.3398274496360045
  0.8039482938198574  0.4858346527770863  0.1732476791725901
  0.5141656178547933  0.3181080862913461  0.1732477700839894
  0.6818901277601341  0.1960492102875193  0.1732502168122068
  0.5141653472229137  0.1960517061801426  0.6732476791725901
  0.6818919137086539  0.4858343821452067  0.6732477700839894
  0.8039507897124807  0.3181098722398659  0.6732502168122068
  0.4706284855245713  0.8192282632611949  0.5064851971311697
  0.1807727354424387  0.6514136018840304  0.5064855764957628
  0.3485843597606006  0.5293613051695303  0.5064801949650288
  0.1807717367388051  0.5293715144754287  0.0064851971311697
  0.3485863981159696  0.8192272645575613  0.0064855764957628
  0.4706386948304697  0.6514156402393994  0.0064801949650288
  0.2380165954435256  0.2645513954503045  0.0261357956815900
  0.7354437813297494  0.9734607162883790  0.0261359722698131
  0.0265345738567575  0.7619790308755583  0.0261326592975237
  0.7354486045496955  0.7619834045564744  0.5261357956815900
  0.0265392837116210  0.2645562186702506  0.5261359722698131
  0.2380209691244417  0.9734654261432425  0.5261326592975237
  0.9047969958339976  0.5978192395775181  0.3594850187502132
  0.4021807392139323  0.3069738190597349  0.3594857119594081
  0.6930269223411614  0.0952033495687061  0.3594861613589373
  0.4021807604224819  0.0952030041660024  0.8594850187502132
  0.6930261809402651  0.5978192607860677  0.8594857119594081
  0.9047966504312939  0.3069730776588386  0.8594861613589373
  0.5714130271763835  0.9311640657119469  0.6927782684074515
  0.0688311453341939  0.6402487796470737  0.6927762841803187
  0.3597445913481323  0.4285827092632886  0.6927711965100869
  0.0688359342880531  0.4285869728236165  0.1927782684074515
  0.3597512203529263  0.9311688546658061  0.1927762841803187
  0.5714172907367114  0.6402554086518677  0.1927711965100869
  0.1523464173611870  0.0153797148731272  0.0321888260134031
  0.9846150716285607  0.1369605175760356  0.0321986208979936
  0.8630316795478805  0.8476481435763787  0.0321921391966100
  0.9846202851268728  0.8476535826388130  0.5321888260134031
  0.8630394824239644  0.0153849283714393  0.5321986208979936
  0.1523518564236213  0.1369683204521195  0.5321921391966100
  0.8189801643498100  0.3485715530576883  0.3656031890023073
  0.6514290404858727  0.4704059779348952  0.3656047170109176
  0.5295942166925869  0.1810218295113373  0.3656037635219036
  0.6514284469423117  0.1810198356501900  0.8656031890023073
  0.5295940220651048  0.3485709595141273  0.8656047170109176
  0.8189781704886627  0.4704057833074131  0.8656037635219036
  0.4856463764079564  0.6819447915247423  0.6987938473483908
  0.3180496161874800  0.8037009202328065  0.6988061487812445
  0.1962890663203183  0.5143460740643562  0.6987963988458006
  0.3180552084752577  0.5143536235920436  0.1987938473483908
  0.1962990797671935  0.6819503838125200  0.1988061487812445
  0.4856539259356438  0.8037109336796817  0.1987963988458006
 
  0.00000000E+00  0.00000000E+00  0.00000000E+00
  0.00000000E+00  0.00000000E+00  0.00000000E+00
  0.00000000E+00  0.00000000E+00  0.00000000E+00
  0.00000000E+00  0.00000000E+00  0.00000000E+00
  0.00000000E+00  0.00000000E+00  0.00000000E+00
  0.00000000E+00  0.00000000E+00  0.00000000E+00
  0.00000000E+00  0.00000000E+00  0.00000000E+00
  0.00000000E+00  0.00000000E+00  0.00000000E+00
  0.00000000E+00  0.00000000E+00  0.00000000E+00
  0.00000000E+00  0.00000000E+00  0.00000000E+00
  0.00000000E+00  0.00000000E+00  0.00000000E+00
  0.00000000E+00  0.00000000E+00  0.00000000E+00
  0.00000000E+00  0.00000000E+00  0.00000000E+00
  0.00000000E+00  0.00000000E+00  0.00000000E+00
  0.00000000E+00  0.00000000E+00  0.00000000E+00
  0.00000000E+00  0.00000000E+00  0.00000000E+00
  0.00000000E+00  0.00000000E+00  0.00000000E+00
  0.00000000E+00  0.00000000E+00  0.00000000E+00
  0.00000000E+00  0.00000000E+00  0.00000000E+00
  0.00000000E+00  0.00000000E+00  0.00000000E+00
  0.00000000E+00  0.00000000E+00  0.00000000E+00
  0.00000000E+00  0.00000000E+00  0.00000000E+00
  0.00000000E+00  0.00000000E+00  0.00000000E+00
  0.00000000E+00  0.00000000E+00  0.00000000E+00
  0.00000000E+00  0.00000000E+00  0.00000000E+00
  0.00000000E+00  0.00000000E+00  0.00000000E+00
  0.00000000E+00  0.00000000E+00  0.00000000E+00
  0.00000000E+00  0.00000000E+00  0.00000000E+00
  0.00000000E+00  0.00000000E+00  0.00000000E+00
  0.00000000E+00  0.00000000E+00  0.00000000E+00
  0.00000000E+00  0.00000000E+00  0.00000000E+00
  0.00000000E+00  0.00000000E+00  0.00000000E+00
  0.00000000E+00  0.00000000E+00  0.00000000E+00
  0.00000000E+00  0.00000000E+00  0.00000000E+00
  0.00000000E+00  0.00000000E+00  0.00000000E+00
  0.00000000E+00  0.00000000E+00  0.00000000E+00
  0.00000000E+00  0.00000000E+00  0.00000000E+00
  0.00000000E+00  0.00000000E+00  0.00000000E+00
  0.00000000E+00  0.00000000E+00  0.00000000E+00
  0.00000000E+00  0.00000000E+00  0.00000000E+00
  0.00000000E+00  0.00000000E+00  0.00000000E+00
  0.00000000E+00  0.00000000E+00  0.00000000E+00
  0.00000000E+00  0.00000000E+00  0.00000000E+00
  0.00000000E+00  0.00000000E+00  0.00000000E+00
  0.00000000E+00  0.00000000E+00  0.00000000E+00
  0.00000000E+00  0.00000000E+00  0.00000000E+00
  0.00000000E+00  0.00000000E+00  0.00000000E+00
  0.00000000E+00  0.00000000E+00  0.00000000E+00
  0.00000000E+00  0.00000000E+00  0.00000000E+00
  0.00000000E+00  0.00000000E+00  0.00000000E+00
  0.00000000E+00  0.00000000E+00  0.00000000E+00
  0.00000000E+00  0.00000000E+00  0.00000000E+00
  0.00000000E+00  0.00000000E+00  0.00000000E+00
  0.00000000E+00  0.00000000E+00  0.00000000E+00
  0.00000000E+00  0.00000000E+00  0.00000000E+00
  0.00000000E+00  0.00000000E+00  0.00000000E+00
  0.00000000E+00  0.00000000E+00  0.00000000E+00
  0.00000000E+00  0.00000000E+00  0.00000000E+00
  0.00000000E+00  0.00000000E+00  0.00000000E+00
  0.00000000E+00  0.00000000E+00  0.00000000E+00
  0.00000000E+00  0.00000000E+00  0.00000000E+00
  0.00000000E+00  0.00000000E+00  0.00000000E+00
  0.00000000E+00  0.00000000E+00  0.00000000E+00
  0.00000000E+00  0.00000000E+00  0.00000000E+00
  0.00000000E+00  0.00000000E+00  0.00000000E+00
  0.00000000E+00  0.00000000E+00  0.00000000E+00
  0.00000000E+00  0.00000000E+00  0.00000000E+00
  0.00000000E+00  0.00000000E+00  0.00000000E+00
  0.00000000E+00  0.00000000E+00  0.00000000E+00
  0.00000000E+00  0.00000000E+00  0.00000000E+00
  0.00000000E+00  0.00000000E+00  0.00000000E+00
  0.00000000E+00  0.00000000E+00  0.00000000E+00
