C2 H4 O2                                
   1.00000000000000     
    13.1509999999999998    0.0000000000000000    0.0000000000000000
     0.0000000000000000    3.9230000000000000    0.0000000000000000
     0.0000000000000000    0.0000000000000000    5.7619999999999996
   C    H    O 
     8    16     8
Direct
  0.3351396606637611  0.7007716888470874  0.1748061259392926
  0.6648601432776471  0.2992314240707702  0.6748031879883462
  0.8351430581450076  0.7992090948398568  0.1748157923011626
  0.1648571740392563  0.2007910689096684  0.6748185951124905
  0.4104830356424536  0.6181578820580232  0.3615290284187592
  0.5895170120648987  0.3818407724441949  0.8615273547350927
  0.9104877674395259  0.8818302621426263  0.3615355364103070
  0.0895122219516837  0.1181664876164470  0.8615374377887909
  0.3189511044981534  0.9502839656842128  0.8858401374307788
  0.6810490413816425  0.0497203200647712  0.3858367169475910
  0.8189545803807454  0.5496957984207809  0.8858501117030106
  0.1810454098755975  0.4503071827426425  0.3858536776136307
  0.3735724170051189  0.4778940251757591  0.5019848742072447
  0.6264275173211052  0.5221036990353782  0.0019838459929582
  0.8735763544218924  0.0220971505638193  0.5019886503439432
  0.1264235044538060  0.9778983238885343  0.0019901796506734
  0.4719428875845754  0.4629417278940208  0.2873252517593046
  0.5280565252079704  0.5370567555170749  0.7873257296720967
  0.9719458074849824  0.0370491106810952  0.2873279786068256
  0.0280545786492127  0.9629485095684358  0.7873278319976420
  0.4454132717471372  0.8530205214407671  0.4270546082613084
  0.5545875220247041  0.1469762540663850  0.9270517741561892
  0.9454173225580661  0.6469715669567484  0.4270632526769726
  0.0545819657474108  0.3530245985273783  0.9270649309228065
  0.3732967366471348  0.8916795335597624  0.0054353486785523
  0.6267034975075505  0.1083224584573852  0.5054322681421515
  0.8732984812378612  0.6082817303035611  0.0054516890996579
  0.1267014506260694  0.3917172897157926  0.5054543003730023
  0.2457317886807297  0.6025212908797442  0.1715943152970083
  0.7542677507173171  0.3974858612706230  0.6715904072650171
  0.7457366522739287  0.8974727535940640  0.1715975959077272
  0.2542637437430567  0.1025308910626047  0.6716015865996611
 
  0.00000000E+00  0.00000000E+00  0.00000000E+00
  0.00000000E+00  0.00000000E+00  0.00000000E+00
  0.00000000E+00  0.00000000E+00  0.00000000E+00
  0.00000000E+00  0.00000000E+00  0.00000000E+00
  0.00000000E+00  0.00000000E+00  0.00000000E+00
  0.00000000E+00  0.00000000E+00  0.00000000E+00
  0.00000000E+00  0.00000000E+00  0.00000000E+00
  0.00000000E+00  0.00000000E+00  0.00000000E+00
  0.00000000E+00  0.00000000E+00  0.00000000E+00
  0.00000000E+00  0.00000000E+00  0.00000000E+00
  0.00000000E+00  0.00000000E+00  0.00000000E+00
  0.00000000E+00  0.00000000E+00  0.00000000E+00
  0.00000000E+00  0.00000000E+00  0.00000000E+00
  0.00000000E+00  0.00000000E+00  0.00000000E+00
  0.00000000E+00  0.00000000E+00  0.00000000E+00
  0.00000000E+00  0.00000000E+00  0.00000000E+00
  0.00000000E+00  0.00000000E+00  0.00000000E+00
  0.00000000E+00  0.00000000E+00  0.00000000E+00
  0.00000000E+00  0.00000000E+00  0.00000000E+00
  0.00000000E+00  0.00000000E+00  0.00000000E+00
  0.00000000E+00  0.00000000E+00  0.00000000E+00
  0.00000000E+00  0.00000000E+00  0.00000000E+00
  0.00000000E+00  0.00000000E+00  0.00000000E+00
  0.00000000E+00  0.00000000E+00  0.00000000E+00
  0.00000000E+00  0.00000000E+00  0.00000000E+00
  0.00000000E+00  0.00000000E+00  0.00000000E+00
  0.00000000E+00  0.00000000E+00  0.00000000E+00
  0.00000000E+00  0.00000000E+00  0.00000000E+00
  0.00000000E+00  0.00000000E+00  0.00000000E+00
  0.00000000E+00  0.00000000E+00  0.00000000E+00
  0.00000000E+00  0.00000000E+00  0.00000000E+00
  0.00000000E+00  0.00000000E+00  0.00000000E+00
