C3 H4 N2                                
   1.00000000000000     
     8.1899999999999995    0.0000000000000000    0.0000000000000000
     0.0000000000000000   12.5879999999999992    0.0000000000000000
     0.0000000000000000    0.0000000000000000    6.7729999999999997
   C    H    N 
    24    32    16
Direct
  0.2992621266852796  0.0561400591507160  0.3867957936464002
  0.7992646628609047  0.9438639643481022  0.6131973500335952
  0.2992622982947735  0.4438581538319993  0.8867975634067797
  0.7992663752640965  0.5561386488915223  0.1132020329159992
  0.4015940998232893  0.1169137692034190  0.5097574097670385
  0.9015936758346840  0.8830869112379591  0.4902408594926518
  0.4015938756813328  0.3830841621771404  0.0097606214249173
  0.9015959887872530  0.6169134019239896  0.9902409938048534
  0.3030759730508348  0.1986455722869198  0.5787882773147169
  0.8030735143098008  0.8013559806888433  0.4212092107044846
  0.3030733432718605  0.3013539055940689  0.0787923179518657
  0.8030765426039190  0.6986444493327034  0.9212091235194586
  0.7228932554978994  0.1872551342459888  0.9270117961484036
  0.2228998868762654  0.8127421028411018  0.0729861276428827
  0.7229002291434292  0.3127449456611759  0.4270156577500321
  0.2228976027934677  0.6872567945398258  0.5729882700516983
  0.6165181346431492  0.1091320294633637  0.0010872762610632
  0.1165245262055817  0.8908669764542337  0.9989128745954741
  0.6165213202268208  0.3908669439145240  0.5010889978078682
  0.1165221146839058  0.6091331818365512  0.4989146474585452
  0.7087869730092445  0.0527712478575421  0.1373979453905088
  0.2087915494623943  0.9472268245111913  0.8625997199363059
  0.7087866499616545  0.4472286288751136  0.6374025115858500
  0.2087891611594688  0.5527721836594310  0.3626021277197676
  0.0503612456496816  0.2333273241201654  0.5099633025435645
  0.5503589360308376  0.7666782815239627  0.4900352336545037
  0.0503589705986303  0.2666734422577195  0.0099647577078224
  0.5503612571817664  0.7333241269242154  0.9900369926791259
  0.3292553061739973  0.2650558091541818  0.6754170278871547
  0.8292524413625154  0.7349453227329439  0.3245845164863915
  0.3292525694880682  0.2349440971845534  0.1754214363203157
  0.8292543563510710  0.7650546569797899  0.8245815983554743
  0.5288577435795183  0.1030571413268054  0.5438591995118711
  0.0288595481690569  0.8969410356794699  0.4561415618920670
  0.5288564468149913  0.3969404590793286  0.0438607691980822
  0.0288594904575565  0.6030578235133848  0.9561391503086514
  0.3271973388246623  0.9846434160782374  0.3036181671970188
  0.8272001926973599  0.0153613936033421  0.6963742716375472
  0.3271989492433378  0.5153539850447058  0.8036176318892001
  0.8272022655245755  0.4846423408479713  0.1963799729586348
  0.9597004358446450  0.0814960559627407  0.2297959395832647
  0.4597050126920760  0.9185021760880951  0.7701993439189184
  0.9597024455619764  0.4185079445121119  0.7298009031049615
  0.4597030366815779  0.5814961304746492  0.2702030637649828
  0.6788331162092300  0.9855917966150871  0.2305850122378067
  0.1788391152705217  0.0144076651300384  0.7694159968705949
  0.6788304665034586  0.5144080229816840  0.7305876755516172
  0.1788354623747898  0.4855923136930669  0.2694170308416005
  0.4903219447273826  0.0955099349264716  0.9613605190920596
  0.9903289820578249  0.9044908985142938  0.0386428469930475
  0.4903254496959301  0.4044869168255087  0.4613607227014915
  0.9903263350477517  0.5955103358096396  0.5386445940626190
  0.6990176330175769  0.2480928436619586  0.8175106257950181
  0.1990223532886898  0.7519056188268125  0.1824874997667227
  0.6990277772695387  0.2519064314597350  0.3175152480745456
  0.1990223555646030  0.7480943971136172  0.6824886177589281
  0.1530226103518763  0.1841193391937628  0.4992365854826176
  0.6530213210390010  0.8158855844863917  0.5007586128843261
  0.1530199148499571  0.3158801521957817  0.9992417747827519
  0.6530238283818142  0.6841167837327734  0.0007615862916034
  0.1479419558013008  0.0974990404301175  0.3797572303687433
  0.6479425550441353  0.9025077545339149  0.6202342141845566
  0.1479422719502793  0.4025007449986470  0.8797600886001006
  0.6479455873155263  0.5974960409052613  0.1202416474839442
  0.8594229209732969  0.0973375932099023  0.1395524915600164
  0.3594260717629191  0.9026577794116211  0.8604426872366061
  0.8594234865645546  0.4026626174534474  0.6395572163971595
  0.3594247527651079  0.5973401486285609  0.3604461263750504
  0.8708699480994166  0.1800406100530889  0.0117274683052148
  0.3708741105954813  0.8199561918757203  0.9882690395042867
  0.8708727553322940  0.3199612705249805  0.5117310361338900
  0.3708730090865554  0.6800422841923789  0.4882714117323702
 
  0.00000000E+00  0.00000000E+00  0.00000000E+00
  0.00000000E+00  0.00000000E+00  0.00000000E+00
  0.00000000E+00  0.00000000E+00  0.00000000E+00
  0.00000000E+00  0.00000000E+00  0.00000000E+00
  0.00000000E+00  0.00000000E+00  0.00000000E+00
  0.00000000E+00  0.00000000E+00  0.00000000E+00
  0.00000000E+00  0.00000000E+00  0.00000000E+00
  0.00000000E+00  0.00000000E+00  0.00000000E+00
  0.00000000E+00  0.00000000E+00  0.00000000E+00
  0.00000000E+00  0.00000000E+00  0.00000000E+00
  0.00000000E+00  0.00000000E+00  0.00000000E+00
  0.00000000E+00  0.00000000E+00  0.00000000E+00
  0.00000000E+00  0.00000000E+00  0.00000000E+00
  0.00000000E+00  0.00000000E+00  0.00000000E+00
  0.00000000E+00  0.00000000E+00  0.00000000E+00
  0.00000000E+00  0.00000000E+00  0.00000000E+00
  0.00000000E+00  0.00000000E+00  0.00000000E+00
  0.00000000E+00  0.00000000E+00  0.00000000E+00
  0.00000000E+00  0.00000000E+00  0.00000000E+00
  0.00000000E+00  0.00000000E+00  0.00000000E+00
  0.00000000E+00  0.00000000E+00  0.00000000E+00
  0.00000000E+00  0.00000000E+00  0.00000000E+00
  0.00000000E+00  0.00000000E+00  0.00000000E+00
  0.00000000E+00  0.00000000E+00  0.00000000E+00
  0.00000000E+00  0.00000000E+00  0.00000000E+00
  0.00000000E+00  0.00000000E+00  0.00000000E+00
  0.00000000E+00  0.00000000E+00  0.00000000E+00
  0.00000000E+00  0.00000000E+00  0.00000000E+00
  0.00000000E+00  0.00000000E+00  0.00000000E+00
  0.00000000E+00  0.00000000E+00  0.00000000E+00
  0.00000000E+00  0.00000000E+00  0.00000000E+00
  0.00000000E+00  0.00000000E+00  0.00000000E+00
  0.00000000E+00  0.00000000E+00  0.00000000E+00
  0.00000000E+00  0.00000000E+00  0.00000000E+00
  0.00000000E+00  0.00000000E+00  0.00000000E+00
  0.00000000E+00  0.00000000E+00  0.00000000E+00
  0.00000000E+00  0.00000000E+00  0.00000000E+00
  0.00000000E+00  0.00000000E+00  0.00000000E+00
  0.00000000E+00  0.00000000E+00  0.00000000E+00
  0.00000000E+00  0.00000000E+00  0.00000000E+00
  0.00000000E+00  0.00000000E+00  0.00000000E+00
  0.00000000E+00  0.00000000E+00  0.00000000E+00
  0.00000000E+00  0.00000000E+00  0.00000000E+00
  0.00000000E+00  0.00000000E+00  0.00000000E+00
  0.00000000E+00  0.00000000E+00  0.00000000E+00
  0.00000000E+00  0.00000000E+00  0.00000000E+00
  0.00000000E+00  0.00000000E+00  0.00000000E+00
  0.00000000E+00  0.00000000E+00  0.00000000E+00
  0.00000000E+00  0.00000000E+00  0.00000000E+00
  0.00000000E+00  0.00000000E+00  0.00000000E+00
  0.00000000E+00  0.00000000E+00  0.00000000E+00
  0.00000000E+00  0.00000000E+00  0.00000000E+00
  0.00000000E+00  0.00000000E+00  0.00000000E+00
  0.00000000E+00  0.00000000E+00  0.00000000E+00
  0.00000000E+00  0.00000000E+00  0.00000000E+00
  0.00000000E+00  0.00000000E+00  0.00000000E+00
  0.00000000E+00  0.00000000E+00  0.00000000E+00
  0.00000000E+00  0.00000000E+00  0.00000000E+00
  0.00000000E+00  0.00000000E+00  0.00000000E+00
  0.00000000E+00  0.00000000E+00  0.00000000E+00
  0.00000000E+00  0.00000000E+00  0.00000000E+00
  0.00000000E+00  0.00000000E+00  0.00000000E+00
  0.00000000E+00  0.00000000E+00  0.00000000E+00
  0.00000000E+00  0.00000000E+00  0.00000000E+00
  0.00000000E+00  0.00000000E+00  0.00000000E+00
  0.00000000E+00  0.00000000E+00  0.00000000E+00
  0.00000000E+00  0.00000000E+00  0.00000000E+00
  0.00000000E+00  0.00000000E+00  0.00000000E+00
  0.00000000E+00  0.00000000E+00  0.00000000E+00
  0.00000000E+00  0.00000000E+00  0.00000000E+00
  0.00000000E+00  0.00000000E+00  0.00000000E+00
  0.00000000E+00  0.00000000E+00  0.00000000E+00
