c21                                     
   1.00000000000000     
     5.1304999999999996    0.0000000000000000    0.0000000000000000
     0.0000000000000000    5.1304999999999996    0.0000000000000000
     0.0000000000000000    0.0000000000000000    5.1304999999999996
   N    H 
     4    12
Direct
  0.2036263844214687  0.2036211000576955  0.2036304852747364
  0.7036263004668086  0.2963788930403197  0.7963698639922470
  0.7963754746036074  0.7036207553344909  0.2963687621253044
  0.2963756307993179  0.7963795391219648  0.7036311126360388
  0.3629238197582012  0.2721597345422566  0.1038169279413808
  0.2721723814525348  0.1038110837363888  0.3629439079568044
  0.1038032599752867  0.3629105991959420  0.2721637252724847
  0.8629236298985319  0.2278404269245442  0.8961832368308080
  0.7721725894284859  0.3961890625701585  0.6370560453691709
  0.6038033204675131  0.1370895414749427  0.7278363091533535
  0.7278277412798815  0.6038114843875277  0.1370569006828646
  0.8961952820976222  0.8629097727314914  0.2278377551437316
  0.3961957744312983  0.6370897601888430  0.7721623154063053
  0.1370753947082406  0.7278404322125240  0.6038160650754207
  0.2278282405835412  0.8961882550726514  0.8629428067781006
  0.6370747756276529  0.7721595594082586  0.3961837803612553
 
  0.00000000E+00  0.00000000E+00  0.00000000E+00
  0.00000000E+00  0.00000000E+00  0.00000000E+00
  0.00000000E+00  0.00000000E+00  0.00000000E+00
  0.00000000E+00  0.00000000E+00  0.00000000E+00
  0.00000000E+00  0.00000000E+00  0.00000000E+00
  0.00000000E+00  0.00000000E+00  0.00000000E+00
  0.00000000E+00  0.00000000E+00  0.00000000E+00
  0.00000000E+00  0.00000000E+00  0.00000000E+00
  0.00000000E+00  0.00000000E+00  0.00000000E+00
  0.00000000E+00  0.00000000E+00  0.00000000E+00
  0.00000000E+00  0.00000000E+00  0.00000000E+00
  0.00000000E+00  0.00000000E+00  0.00000000E+00
  0.00000000E+00  0.00000000E+00  0.00000000E+00
  0.00000000E+00  0.00000000E+00  0.00000000E+00
  0.00000000E+00  0.00000000E+00  0.00000000E+00
  0.00000000E+00  0.00000000E+00  0.00000000E+00
